109
Properties=species:S:1:pos:R:3 pbc="F F F"
Rb      -0.00939000       0.02324000      -0.01713800
Si      -2.16890000       0.00238000       4.06273000
Al      -1.50203000       3.75749000      -2.93304000
Si       2.30644000       4.56380000      -0.09808000
Si      -4.56238000      -2.30501000      -0.09808000
Si      -4.50903000       0.00237300       1.96658000
Si       1.50012000      -3.75273000      -2.93304000
Si      -2.30834000      -4.55905000      -0.09808000
Si      -0.00095000       2.17033000       4.06273000
Si       1.50012000       3.75749000      -2.93304000
Si      -2.30834000       4.56380000      -0.09808000
Si      -0.00094900       4.51045000       1.96658000
Si      -0.00095000      -2.16557000       4.06273000
Si       3.75416000       1.50345000      -2.93304000
Si      -1.50203000      -3.75273000      -2.93304000
Si       2.30644000      -4.55905000      -0.09808000
Si      -0.00095000      -4.50570000       1.96658000
Si      -3.75606000      -1.49870000      -2.93304000
Si      -4.56238000       2.30977000      -0.09808000
Si      -3.75606000       1.50345000      -2.93304000
Si       4.56047000      -2.30501000      -0.09808000
Si       2.16700000       0.00238000       4.06273000
Si       3.75416000      -1.49870000      -2.93304000
Si       4.56047000       2.30977000      -0.09808000
Si       4.50712000       0.00238000       1.96658000
O       -4.75395000       1.90722000      -4.13003000
O        4.51197000      -1.54720000      -1.51556000
O        4.15671000      -1.30712000       1.09891000
O        6.06155000      -2.83366000       0.15678000
O        3.57229000       0.00238000       3.27811000
O        2.47134000       0.00238000       5.64344000
O        4.75205000      -1.90246000      -4.13003000
O       -1.31045000       4.16004000       1.09891000
O       -6.06345000       0.00238600       2.38466000
O        1.54862000      -4.51055000      -1.51556000
O       -4.15861000       1.31188000       1.09891000
O       -3.57419000       0.00238100       3.27811000
O       -2.47324000       0.00238000       5.64344000
O       -1.55053000       4.51530000      -1.51556000
O       -1.31530000      -1.31197000       3.69047000
O       -1.31530000       1.31673000       3.69047000
O       -1.90579000       4.75538000      -4.13003000
O       -0.00095000       3.22884000      -3.18790000
O       -4.75395000      -1.90246000      -4.13003000
O       -3.22741000       0.00238000      -3.18790000
O        4.15671000       1.31188000       1.09891000
O        6.06155000       2.83842000       0.15678000
O        6.06155000       0.00238000       2.38466000
O       -2.83699000       6.06488000       0.15678000
O       -3.57298000       3.57440000      -0.12385000
O       -0.00095100       6.06488000       2.38466000
O       -0.00095000      -3.57086000       3.27811000
O       -0.00095000      -2.46991000       5.64344000
O       -2.49143000       2.49285000      -2.90727000
O        1.54862000       4.51530000      -1.51556000
O        1.30855000       4.16004000       1.09891000
O        2.83509000       6.06488000       0.15678000
O        3.57107000       3.57440000      -0.12385000
O       -4.51388000      -1.54720000      -1.51556000
O       -4.15861000      -1.30712000       1.09891000
O       -6.06345000      -2.83366000       0.15678000
O       -3.57298000      -3.56965000      -0.12385000
O        1.90389000      -4.75062000      -4.13003000
O       -4.51388000       1.55195000      -1.51556000
O       -6.06345000       2.83842000       0.15678000
O        1.31340000      -1.31197000       3.69047000
O        4.51197000       1.55195000      -1.51556000
O        4.75205000       1.90722000      -4.13003000
O        3.22551000       0.00238000      -3.18790000
O       -1.90579000      -4.75062000      -4.13003000
O       -2.49143000      -2.48810000      -2.90727000
O        1.30855000      -4.15528000       1.09891000
O        2.83509000      -6.06012000       0.15678000
O        3.57107000      -3.56965000      -0.12385000
O       -0.00095000      -6.06012000       2.38466000
O       -0.00095000      -3.22408000      -3.18790000
O        2.48952000      -2.48810000      -2.90727000
O       -1.55053000      -4.51055000      -1.51556000
O       -1.31045000      -4.15528000       1.09891000
O       -2.83699000      -6.06012000       0.15678000
O       -0.00095000       3.57562000       3.27811000
O       -0.00095000       2.47467000       5.64344000
O        1.31340000       1.31673000       3.69047000
O        1.90389000       4.75538000      -4.13003000
O        2.48952000       2.49285000      -2.90727000
H       -5.36142000       2.15301000      -4.85870000
H        6.97427000      -3.15510000       0.31175000
H        2.65662000       0.00238000       6.60577000
H        5.35952000      -2.14825000      -4.85870000
H       -7.00982000       0.00237900       2.63920000
H       -2.65852000       0.00238000       6.60577000
H       -2.15158000       5.36285000      -4.85870000
H       -5.36142000      -2.14825000      -4.85870000
H        6.97427000       3.15986000       0.31175000
H        7.00792000       0.00238000       2.63920000
H       -3.15843000       6.97760000       0.31175000
H       -0.00095000       7.01125000       2.63920000
H       -0.00095000      -2.65519000       6.60577000
H        3.15653000       6.97760000       0.31175000
H       -6.97617000      -3.15510000       0.31175000
H        2.14968000      -5.35809000      -4.85870000
H       -6.97617000       3.15986000       0.31175000
H        5.35952000       2.15301000      -4.85870000
H       -2.15158000      -5.35809000      -4.85870000
H        3.15653000      -6.97284000       0.31175000
H       -0.00095000      -7.00649000       2.63920000
H       -3.15843000      -6.97284000       0.31175000
H       -0.00095000       2.65995000       6.60577000
H        2.14968000       5.36285000      -4.85870000
