109
Properties=species:S:1:pos:R:3 pbc="F F F"
Cs      -0.00947500       0.02341500      -0.01737500
Si      -2.16888000       0.00232000       4.06274000
Al      -1.50200000       3.75743000      -2.93304000
Si       2.30646000       4.56374000      -0.09807000
Si      -4.56235000      -2.30507000      -0.09807000
Si      -4.50900000       0.00231300       1.96658000
Si       1.50015000      -3.75280000      -2.93304000
Si      -2.30831000      -4.55911000      -0.09807000
Si      -0.00093000       2.17027000       4.06274000
Si       1.50015000       3.75743000      -2.93304000
Si      -2.30831000       4.56374000      -0.09807000
Si      -0.00092900       4.51039000       1.96658000
Si      -0.00093000      -2.16563000       4.06274000
Si       3.75419000       1.50339000      -2.93304000
Si      -1.50200000      -3.75280000      -2.93304000
Si       2.30646000      -4.55911000      -0.09807000
Si      -0.00093000      -4.50576000       1.96658000
Si      -3.75604000      -1.49876000      -2.93304000
Si      -4.56235000       2.30970000      -0.09807000
Si      -3.75604000       1.50339000      -2.93304000
Si       4.56050000      -2.30507000      -0.09807000
Si       2.16702000       0.00232000       4.06274000
Si       3.75419000      -1.49876000      -2.93304000
Si       4.56050000       2.30970000      -0.09807000
Si       4.50715000       0.00232000       1.96658000
O       -4.75393000       1.90715000      -4.13002000
O        4.51200000      -1.54726000      -1.51556000
O        4.15674000      -1.30718000       1.09891000
O        6.06157000      -2.83372000       0.15679000
O        3.57231000       0.00232000       3.27811000
O        2.47136000       0.00232000       5.64344000
O        4.75207000      -1.90252000      -4.13002000
O       -1.31043000       4.15998000       1.09891000
O       -6.06343000       0.00232600       2.38467000
O        1.54865000      -4.51061000      -1.51556000
O       -4.15859000       1.31182000       1.09891000
O       -3.57416000       0.00232100       3.27811000
O       -2.47321000       0.00232000       5.64344000
O       -1.55050000       4.51524000      -1.51556000
O       -1.31528000      -1.31203000       3.69047000
O       -1.31528000       1.31667000       3.69047000
O       -1.90576000       4.75532000      -4.13002000
O       -0.00093000       3.22878000      -3.18790000
O       -4.75393000      -1.90252000      -4.13002000
O       -3.22739000       0.00232000      -3.18790000
O        4.15674000       1.31182000       1.09891000
O        6.06157000       2.83835000       0.15679000
O        6.06157000       0.00232000       2.38467000
O       -2.83696000       6.06482000       0.15679000
O       -3.57295000       3.57434000      -0.12385000
O       -0.00093100       6.06482000       2.38467000
O       -0.00093000      -3.57092000       3.27811000
O       -0.00093000      -2.46997000       5.64344000
O       -2.49140000       2.49279000      -2.90727000
O        1.54865000       4.51524000      -1.51556000
O        1.30857000       4.15998000       1.09891000
O        2.83511000       6.06482000       0.15679000
O        3.57110000       3.57434000      -0.12385000
O       -4.51385000      -1.54726000      -1.51556000
O       -4.15859000      -1.30718000       1.09891000
O       -6.06343000      -2.83372000       0.15679000
O       -3.57295000      -3.56971000      -0.12385000
O        1.90391000      -4.75068000      -4.13002000
O       -4.51385000       1.55189000      -1.51556000
O       -6.06343000       2.83835000       0.15679000
O        1.31342000      -1.31203000       3.69047000
O        4.51200000       1.55189000      -1.51556000
O        4.75207000       1.90715000      -4.13002000
O        3.22554000       0.00232000      -3.18790000
O       -1.90576000      -4.75068000      -4.13002000
O       -2.49140000      -2.48816000      -2.90727000
O        1.30857000      -4.15535000       1.09891000
O        2.83511000      -6.06018000       0.15679000
O        3.57110000      -3.56971000      -0.12385000
O       -0.00093000      -6.06018000       2.38467000
O       -0.00093000      -3.22415000      -3.18790000
O        2.48955000      -2.48816000      -2.90727000
O       -1.55050000      -4.51061000      -1.51556000
O       -1.31043000      -4.15535000       1.09891000
O       -2.83696000      -6.06018000       0.15679000
O       -0.00093000       3.57555000       3.27811000
O       -0.00093000       2.47460000       5.64344000
O        1.31342000       1.31667000       3.69047000
O        1.90391000       4.75532000      -4.13002000
O        2.48955000       2.49279000      -2.90727000
H       -5.36140000       2.15295000      -4.85870000
H        6.97430000      -3.15516000       0.31175000
H        2.65664000       0.00232000       6.60577000
H        5.35955000      -2.14832000      -4.85870000
H       -7.00979000       0.00231900       2.63921000
H       -2.65849000       0.00232000       6.60577000
H       -2.15156000       5.36279000      -4.85870000
H       -5.36140000      -2.14832000      -4.85870000
H        6.97430000       3.15980000       0.31175000
H        7.00794000       0.00232000       2.63921000
H       -3.15841000       6.97754000       0.31175000
H       -0.00093000       7.01118000       2.63921000
H       -0.00093000      -2.65525000       6.60577000
H        3.15655000       6.97754000       0.31175000
H       -6.97615000      -3.15516000       0.31175000
H        2.14971000      -5.35816000      -4.85870000
H       -6.97615000       3.15980000       0.31175000
H        5.35955000       2.15295000      -4.85870000
H       -2.15156000      -5.35816000      -4.85870000
H        3.15655000      -6.97291000       0.31175000
H       -0.00093000      -7.00655000       2.63921000
H       -3.15841000      -6.97291000       0.31175000
H       -0.00093000       2.65988000       6.60577000
H        2.14971000       5.36279000      -4.85870000
