73
Properties=species:S:1:pos:R:3 pbc="F F F"
Sr       0.00000100       0.00000000       0.00000100
Si       1.54973000       3.74261000      -1.54287000
Si       3.74261000      -1.54973000       1.54287000
Si      -1.54973000      -3.74260000       1.54287000
Si       1.54973000      -3.74260000       1.54287000
Si       1.54973000       3.74261000       1.54287000
Si      -1.54973000      -3.74260000      -1.54287000
Al       3.74261000      -1.54973000      -1.54287000
Si       1.54973000      -3.74260000      -1.54287000
Si       3.74261000       1.54973000       1.54287000
Si      -3.74260000       1.54973000      -1.54287000
Si       3.74261000       1.54973000      -1.54287000
Si      -1.54973000       3.74261000      -1.54287000
Al      -3.74260000       1.54973000       1.54287000
Si      -3.74260000      -1.54973000       1.54287000
Si      -1.54973000       3.74261000       1.54287000
Si      -3.74260000      -1.54973000      -1.54287000
O        4.93923000       2.06677000      -2.48850000
O       -2.41847000      -2.41847000      -1.83154000
O        0.00000000      -3.44275000      -1.85742000
O        2.06677000       4.93923000       2.48850000
O        2.41847000       2.41847000      -1.83154000
O        1.71367000       4.16997000       0.00000000
O        2.41847000      -2.41847000       1.83154000
O        0.00000000       3.44275000      -1.85742000
O        2.06677000       4.93923000      -2.48850000
O        4.16997000      -1.71367000       0.00000000
O        3.44275000       0.00000000       1.85742000
O       -1.71367000       4.16997000       0.00000000
O       -2.06677000       4.93923000      -2.48850000
O       -2.41847000       2.41847000       1.83154000
O       -3.44275000       0.00000000       1.85742000
O       -4.93923000       2.06677000       2.48850000
O        4.93923000      -2.06677000       2.48850000
O       -2.41847000      -2.41847000       1.83154000
O       -1.71367000      -4.16997000       0.00000000
O        0.00000000      -3.44275000       1.85742000
O       -2.06677000      -4.93923000       2.48850000
O        1.71367000      -4.16997000       0.00000000
O        2.06677000      -4.93923000       2.48850000
O        2.41847000       2.41847000       1.83154000
O        0.00000000       3.44275000       1.85742000
O       -2.06677000      -4.93923000      -2.48850000
O       -4.16997000      -1.71367000       0.00000000
O       -4.93923000      -2.06677000       2.48850000
O       -2.06677000       4.93923000       2.48850000
O       -4.93923000      -2.06677000      -2.48850000
O        2.41847000      -2.41847000      -1.83154000
O        3.44275000       0.00000000      -1.85742000
O        4.93923000      -2.06677000      -2.48850000
O        2.06677000      -4.93923000      -2.48850000
O        4.16997000       1.71367000       0.00000000
O        4.93923000       2.06677000       2.48850000
O       -2.41847000       2.41847000      -1.83154000
O       -4.16997000       1.71367000       0.00000000
O       -3.44275000       0.00000000      -1.85742000
O       -4.93923000       2.06677000      -2.48850000
H        5.66742000       2.38141000      -3.06395000
H        2.38141000       5.66742000       3.06395000
H        2.38141000       5.66742000      -3.06395000
H       -2.38141000       5.66742000      -3.06395000
H       -5.66742000       2.38141000       3.06395000
H        5.66742000      -2.38141000       3.06395000
H       -2.38141000      -5.66742000       3.06395000
H        2.38141000      -5.66742000       3.06395000
H       -2.38141000      -5.66742000      -3.06395000
H       -5.66742000      -2.38141000       3.06395000
H       -2.38141000       5.66742000       3.06395000
H       -5.66742000      -2.38141000      -3.06395000
H        5.66742000      -2.38141000      -3.06395000
H        2.38141000      -5.66742000      -3.06395000
H        5.66742000       2.38141000       3.06395000
H       -5.66742000       2.38141000      -3.06395000
