109
Properties=species:S:1:pos:R:3 pbc="F F F"
Cs      -0.00911600      -0.02928500       0.00800200
Al      -1.52791000      -4.42662000       1.26292000
Si      -4.59304000      -0.89178000      -1.25323000
Si      -3.06693000      -3.53508000      -1.25323000
Si      -3.06521000      -0.01068000      -3.74410000
Si      -1.53996000      -2.65249000      -3.74410000
Si      -3.06952000      -0.00024000       3.73975000
Si       1.52603000      -4.42662000       1.26292000
Si      -1.53308000      -2.66143000       3.73975000
Si      -3.06865000       3.53161000       1.26292000
Si       3.06505000      -3.53508000      -1.25323000
Si      -1.52705000       4.41867000      -1.25323000
Si       1.53808000      -2.65249000      -3.74410000
Si      -1.52619000       2.65498000      -3.74410000
Si       1.53119000      -2.66143000       3.73975000
Si      -1.53738000       2.65349000       3.73975000
Si       4.59374000       0.88682000       1.26292000
Si       4.59116000      -0.89178000      -1.25323000
Si       3.06333000      -0.01068000      -3.74410000
Si       3.06763000      -0.00024000       3.73975000
Si       3.06677000       3.53161000       1.26292000
Si       1.52517000       4.41867000      -1.25323000
Si       1.52431000       2.65498000      -3.74410000
Si       1.53550000       2.65349000       3.73975000
Si      -4.59562000       0.88682000       1.26292000
O        1.89099000       1.08958000       3.59372000
O        3.57978000      -0.03453000       5.26460000
O        2.49351000       3.51074000       2.76811000
O        4.30625000       4.55434000       1.17586000
O        1.90476000       4.00570000       0.25477000
O        2.50728000       5.59198000      -1.75590000
O        1.68613000       3.13802000      -2.21644000
O        4.27354000      -2.47060000      -1.30097000
O       -2.51089000      -1.45085000       3.32695000
O       -3.58166000      -0.03453000       5.26460000
O       -1.89287000       1.08958000       3.59372000
O       -0.00094000      -4.11652000       0.85854000
O       -1.79647000      -3.91972000       2.76811000
O       -4.42520000      -0.35656000       0.25477000
O       -1.79388000      -6.01140000       1.17586000
O       -2.51950000      -3.65733000       0.25477000
O       -6.10022000      -0.62790000      -1.75590000
O       -3.56445000      -0.11206000      -2.21644000
O        6.09833000      -0.62790000      -1.75590000
O        3.56256000      -0.11206000      -2.21644000
O        2.50642000       3.51521000      -4.68766000
O        1.76187000       3.11417000       5.26460000
O       -6.10108000       1.44887000       1.17586000
O       -2.50917000       5.59198000      -1.75590000
O       -1.68801000       3.13802000      -2.21644000
O       -0.00094000       4.93302000      -1.30097000
O        1.79200000      -3.93314000      -4.68766000
O        2.49179000      -1.44191000      -4.21588000
O       -4.27543000      -2.47060000      -1.30097000
O       -3.59199000      -4.97227000      -1.75590000
O       -1.87738000      -3.03415000      -2.21644000
O       -4.30125000       0.40974000      -4.68766000
O       -2.49367000      -1.44191000      -4.21588000
O       -1.90148000       1.09554000      -3.85924000
O       -1.79388000      -3.93314000      -4.68766000
O       -0.00180000      -2.19778000      -3.85924000
O       -4.29092000       0.40080000       2.76811000
O        1.79458000      -3.91972000       2.76811000
O        4.29937000       0.40974000      -4.68766000
O        1.90046000       1.09405000      -3.85924000
O       -2.50831000       3.51521000      -4.68766000
O       -0.00094000       2.87563000      -4.21588000
O        2.50814000      -1.45234000       3.32695000
O        1.81696000      -3.08782000       5.26460000
O       -0.00008000       2.89501000       3.32695000
O       -1.76376000       3.11417000       5.26460000
O        3.56170000       2.05416000       0.85854000
O        4.28904000       0.40080000       2.76811000
O        6.09919000       1.44887000       1.17586000
O        4.42331000      -0.35656000       0.25477000
O        1.79200000      -6.01140000       1.17586000
O        2.51761000      -3.65733000       0.25477000
O       -0.00094000      -2.18734000       3.59372000
O       -1.81885000      -3.08782000       5.26460000
O       -3.56359000       2.05416000       0.85854000
O       -2.49539000       3.51074000       2.76811000
O       -4.30813000       4.55434000       1.17586000
O       -1.90664000       4.00570000       0.25477000
O        3.59011000      -4.97227000      -1.75590000
O        1.87549000      -3.03415000      -2.21644000
H        3.89173000      -0.05542000       6.19339000
H        5.06104000       5.17714000       1.12285000
H        3.10489000       6.30593000      -2.06176000
H       -3.89361000      -0.05542000       6.19339000
H       -1.95585000      -6.97647000       1.12285000
H       -7.01731000      -0.46733000      -2.06176000
H        7.01543000      -0.46733000      -2.06176000
H        3.10392000       4.03855000      -5.26169000
H        1.89976000       3.39477000       6.19339000
H       -7.01783000       1.79114000       1.12285000
H       -3.10677000       6.30593000      -2.06176000
H        1.94648000      -4.71225000      -5.26169000
H       -3.91148000      -5.84678000      -2.06176000
H       -5.05322000       0.66552000      -5.26169000
H       -1.94836000      -4.71225000      -5.26169000
H        5.05134000       0.66552000      -5.26169000
H       -3.10580000       4.03855000      -5.26169000
H        1.99102000      -3.34753000       6.19339000
H       -1.90164000       3.39477000       6.19339000
H        7.01595000       1.79114000       1.12285000
H        1.95397000      -6.97647000       1.12285000
H       -1.99291000      -3.34753000       6.19339000
H       -5.06293000       5.17714000       1.12285000
H        3.90960000      -5.84678000      -2.06176000
