109
Properties=species:S:1:pos:R:3 pbc="F F F"
Cs       0.02437100       0.04897700       0.00117100
Si      -2.16653000       0.00281000       4.06449000
Si      -1.49965000       3.75793000      -2.93129000
Al       2.30881000       4.56424000      -0.09632000
Si      -4.56000000      -2.30457000      -0.09632000
Si      -4.50665000       0.00281100       1.96833000
Si       1.50250000      -3.75230000      -2.93129000
Si      -2.30596000      -4.55861000      -0.09632000
Si       0.00142000       2.17076000       4.06449000
Si       1.50250000       3.75793000      -2.93129000
Si      -2.30596000       4.56424000      -0.09632000
Si       0.00142000       4.51089000       1.96833000
Si       0.00142000      -2.16514000       4.06449000
Si       3.75654000       1.50389000      -2.93129000
Si      -1.49965000      -3.75230000      -2.93129000
Si       2.30881000      -4.55861000      -0.09632000
Si       0.00142000      -4.50526000       1.96833000
Si      -3.75369000      -1.49826000      -2.93129000
Si      -4.56000000       2.31020000      -0.09632000
Si      -3.75369000       1.50389000      -2.93129000
Si       4.56285000      -2.30457000      -0.09632000
Si       2.16937000       0.00281000       4.06449000
Si       3.75654000      -1.49826000      -2.93129000
Si       4.56285000       2.31020000      -0.09632000
Si       4.50950000       0.00281000       1.96833000
O       -4.75158000       1.90765000      -4.12827000
O        4.51435000      -1.54676000      -1.51381000
O        4.15908000      -1.30669000       1.10066000
O        6.06392000      -2.83322000       0.15854000
O        3.57466000       0.00281000       3.27986000
O        2.47371000       0.00281000       5.64519000
O        4.75442000      -1.90202000      -4.12827000
O       -1.30808000       4.16048000       1.10066000
O       -6.06108000       0.00280900       2.38642000
O        1.55100000      -4.51011000      -1.51381000
O       -4.15624000       1.31231000       1.10066000
O       -3.57181000       0.00281000       3.27986000
O       -2.47086000       0.00281000       5.64519000
O       -1.54815000       4.51574000      -1.51381000
O       -1.31293000      -1.31154000       3.69222000
O       -1.31293000       1.31716000       3.69222000
O       -1.90341000       4.75581000      -4.12827000
O        0.00142000       3.22928000      -3.18615000
O       -4.75158000      -1.90202000      -4.12827000
O       -3.22504000       0.00281000      -3.18615000
O        4.15908000       1.31231000       1.10066000
O        6.06392000       2.83885000       0.15854000
O        6.06392000       0.00281000       2.38642000
O       -2.83461000       6.06531000       0.15854000
O       -3.57060000       3.57484000      -0.12210000
O        0.00142000       6.06531000       2.38642000
O        0.00142000      -3.57042000       3.27986000
O        0.00142000      -2.46947000       5.64519000
O       -2.48905000       2.49329000      -2.90552000
O        1.55100000       4.51574000      -1.51381000
O        1.31092000       4.16048000       1.10066000
O        2.83746000       6.06531000       0.15854000
O        3.57345000       3.57484000      -0.12210000
O       -4.51150000      -1.54676000      -1.51381000
O       -4.15624000      -1.30669000       1.10066000
O       -6.06108000      -2.83322000       0.15854000
O       -3.57060000      -3.56921000      -0.12210000
O        1.90626000      -4.75019000      -4.12827000
O       -4.51150000       1.55239000      -1.51381000
O       -6.06108000       2.83885000       0.15854000
O        1.31577000      -1.31154000       3.69222000
O        4.51435000       1.55239000      -1.51381000
O        4.75442000       1.90765000      -4.12827000
O        3.22789000       0.00281000      -3.18615000
O       -1.90341000      -4.75019000      -4.12827000
O       -2.48905000      -2.48766000      -2.90552000
O        1.31092000      -4.15485000       1.10066000
O        2.83746000      -6.05969000       0.15854000
O        3.57345000      -3.56921000      -0.12210000
O        0.00142000      -6.05969000       2.38642000
O        0.00142000      -3.22365000      -3.18615000
O        2.49190000      -2.48766000      -2.90552000
O       -1.54815000      -4.51011000      -1.51381000
O       -1.30808000      -4.15485000       1.10066000
O       -2.83461000      -6.05969000       0.15854000
O        0.00142000       3.57605000       3.27986000
O        0.00142000       2.47510000       5.64519000
O        1.31577000       1.31716000       3.69222000
O        1.90626000       4.75581000      -4.12827000
O        2.49190000       2.49329000      -2.90552000
H       -5.35905000       2.15344000      -4.85695000
H        6.97664000      -3.15467000       0.31350000
H        2.65899000       0.00281000       6.60752000
H        5.36189000      -2.14782000      -4.85695000
H       -7.00744000       0.00281000       2.64096000
H       -2.65614000       0.00281000       6.60752000
H       -2.14921000       5.36328000      -4.85695000
H       -5.35905000      -2.14782000      -4.85695000
H        6.97664000       3.16029000       0.31350000
H        7.01029000       0.00281000       2.64096000
H       -3.15606000       6.97803000       0.31350000
H        0.00142000       7.01168000       2.64096000
H        0.00142000      -2.65475000       6.60752000
H        3.15890000       6.97803000       0.31350000
H       -6.97380000      -3.15467000       0.31350000
H        2.15205000      -5.35766000      -4.85695000
H       -6.97380000       3.16029000       0.31350000
H        5.36189000       2.15344000      -4.85695000
H       -2.14921000      -5.35766000      -4.85695000
H        3.15890000      -6.97241000       0.31350000
H        0.00142000      -7.00605000       2.64096000
H       -3.15606000      -6.97241000       0.31350000
H        0.00142000       2.66038000       6.60752000
H        2.15205000       5.36328000      -4.85695000
