109
Properties=species:S:1:pos:R:3 pbc="F F F"
Sr      -0.00295300      -0.02506900      -0.02065200
Si      -2.16846000      -0.00241000       4.06267000
Si      -1.50159000       3.75270000      -2.93310000
Si       2.30688000       4.55901000      -0.09814000
Al      -4.56194000      -2.30980000      -0.09814000
Si      -4.50859000      -0.00240900       1.96652000
Si       1.50056000      -3.75752000      -2.93310000
Si      -2.30790000      -4.56384000      -0.09814000
Si      -0.00051000       2.16554000       4.06267000
Si       1.50056000       3.75270000      -2.93310000
Si      -2.30790000       4.55901000      -0.09814000
Si      -0.00051000       4.50566000       1.96652000
Si      -0.00051000      -2.17036000       4.06267000
Si       3.75460000       1.49866000      -2.93310000
Si      -1.50159000      -3.75752000      -2.93310000
Si       2.30688000      -4.56384000      -0.09814000
Si      -0.00051000      -4.51049000       1.96652000
Si      -3.75562000      -1.50349000      -2.93310000
Si      -4.56194000       2.30498000      -0.09814000
Si      -3.75562000       1.49866000      -2.93310000
Si       4.56091000      -2.30980000      -0.09814000
Si       2.16744000      -0.00241000       4.06267000
Al       3.75460000      -1.50349000      -2.93310000
Si       4.56091000       2.30498000      -0.09814000
Si       4.50756000      -0.00241000       1.96652000
O       -4.75351000       1.90243000      -4.13009000
O        4.51241000      -1.55199000      -1.51562000
O        4.15715000      -1.31191000       1.09885000
O        6.06199000      -2.83845000       0.15672000
O        3.57273000      -0.00241000       3.27805000
O        2.47178000      -0.00241000       5.64338000
O        4.75249000      -1.90725000      -4.13009000
O       -1.31001000       4.15525000       1.09885000
O       -6.06301000      -0.00241000       2.38460000
O        1.54906000      -4.51534000      -1.51562000
O       -4.15817000       1.30709000       1.09885000
O       -3.57375000      -0.00241000       3.27805000
O       -2.47280000      -0.00241000       5.64338000
O       -1.55009000       4.51051000      -1.51562000
O       -1.31486000      -1.31676000       3.69040000
O       -1.31486000       1.31194000       3.69040000
O       -1.90535000       4.75059000      -4.13009000
O       -0.00051000       3.22405000      -3.18796000
O       -4.75351000      -1.90725000      -4.13009000
O       -3.22697000      -0.00241000      -3.18796000
O        4.15715000       1.30709000       1.09885000
O        6.06199000       2.83363000       0.15672000
O        6.06199000      -0.00241000       2.38460000
O       -2.83655000       6.06009000       0.15672000
O       -3.57254000       3.56961000      -0.12391000
O       -0.00051000       6.06009000       2.38460000
O       -0.00051000      -3.57565000       3.27805000
O       -0.00051000      -2.47470000       5.64338000
O       -2.49099000       2.48806000      -2.90733000
O        1.54906000       4.51051000      -1.51562000
O        1.30899000       4.15525000       1.09885000
O        2.83553000       6.06009000       0.15672000
O        3.57151000       3.56961000      -0.12391000
O       -4.51344000      -1.55199000      -1.51562000
O       -4.15817000      -1.31191000       1.09885000
O       -6.06301000      -2.83845000       0.15672000
O       -3.57254000      -3.57444000      -0.12391000
O        1.90433000      -4.75541000      -4.13009000
O       -4.51344000       1.54716000      -1.51562000
O       -6.06301000       2.83363000       0.15672000
O        1.31384000      -1.31676000       3.69040000
O        4.51241000       1.54716000      -1.51562000
O        4.75249000       1.90243000      -4.13009000
O        3.22595000      -0.00241000      -3.18796000
O       -1.90535000      -4.75541000      -4.13009000
O       -2.49099000      -2.49289000      -2.90733000
O        1.30899000      -4.16007000       1.09885000
O        2.83553000      -6.06491000       0.15672000
O        3.57151000      -3.57444000      -0.12391000
O       -0.00051000      -6.06491000       2.38460000
O       -0.00051000      -3.22887000      -3.18796000
O        2.48996000      -2.49289000      -2.90733000
O       -1.55009000      -4.51534000      -1.51562000
O       -1.31001000      -4.16007000       1.09885000
O       -2.83655000      -6.06491000       0.15672000
O       -0.00051000       3.57083000       3.27805000
O       -0.00051000       2.46988000       5.64338000
O        1.31384000       1.31194000       3.69040000
O        1.90433000       4.75059000      -4.13009000
O        2.48996000       2.48806000      -2.90733000
H       -5.36098000       2.14822000      -4.85876000
H        6.97471000      -3.15989000       0.31169000
H        2.65706000      -0.00241000       6.60571000
H        5.35996000      -2.15304000      -4.85876000
H       -7.00938000      -0.00241000       2.63914000
H       -2.65808000      -0.00241000       6.60571000
H       -2.15114000       5.35806000      -4.85876000
H       -5.36098000      -2.15304000      -4.85876000
H        6.97471000       3.15507000       0.31169000
H        7.00836000      -0.00241000       2.63914000
H       -3.15799000       6.97281000       0.31169000
H       -0.00051000       7.00646000       2.63914000
H       -0.00051000      -2.65998000       6.60571000
H        3.15697000       6.97281000       0.31169000
H       -6.97573000      -3.15989000       0.31169000
H        2.15012000      -5.36288000      -4.85876000
H       -6.97573000       3.15507000       0.31169000
H        5.35996000       2.14822000      -4.85876000
H       -2.15114000      -5.36288000      -4.85876000
H        3.15697000      -6.97763000       0.31169000
H       -0.00051000      -7.01128000       2.63914000
H       -3.15799000      -6.97763000       0.31169000
H       -0.00051000       2.65516000       6.60571000
H        2.15012000       5.35806000      -4.85876000
