109
Properties=species:S:1:pos:R:3 pbc="F F F"
Sr       0.00021000      -0.00015600      -0.00041900
Si      -1.52697000      -4.42389000       1.26214000
Si      -4.59210000      -0.88905000      -1.25401000
Al      -3.06599000      -3.53235000      -1.25401000
Si      -3.06427000      -0.00795000      -3.74488000
Si      -1.53902000      -2.64976000      -3.74488000
Si      -3.06857000       0.00249000       3.73897000
Si       1.52697000      -4.42389000       1.26214000
Si      -1.53213000      -2.65870000       3.73897000
Si      -3.06771000       3.53434000       1.26214000
Si       3.06599000      -3.53235000      -1.25401000
Si      -1.52611000       4.42140000      -1.25401000
Si       1.53902000      -2.64976000      -3.74488000
Si      -1.52525000       2.65771000      -3.74488000
Si       1.53214000      -2.65870000       3.73897000
Si      -1.53644000       2.65622000       3.73897000
Si       4.59468000       0.88955000       1.26214000
Si       4.59210000      -0.88905000      -1.25401000
Si       3.06427000      -0.00795000      -3.74488000
Si       3.06857000       0.00249000       3.73897000
Al       3.06771000       3.53434000       1.26214000
Si       1.52611000       4.42140000      -1.25401000
Si       1.52525000       2.65771000      -3.74488000
Si       1.53644000       2.65622000       3.73897000
Si      -4.59468000       0.88955000       1.26214000
O        1.89193000       1.09231000       3.59294000
O        3.58072000      -0.03180000       5.26382000
O        2.49445000       3.51347000       2.76733000
O        4.30719000       4.55707000       1.17508000
O        1.90570000       4.00843000       0.25399000
O        2.50823000       5.59471000      -1.75668000
O        1.68707000       3.14075000      -2.21722000
O        4.27449000      -2.46787000      -1.30175000
O       -2.50995000      -1.44812000       3.32617000
O       -3.58072000      -0.03180000       5.26382000
O       -1.89193000       1.09231000       3.59294000
O        0.00000000      -4.11379000       0.85776000
O       -1.79552000      -3.91699000       2.76733000
O       -4.42425000      -0.35383000       0.25399000
O       -1.79294000      -6.00867000       1.17508000
O       -2.51855000      -3.65460000       0.25399000
O       -6.09927000      -0.62517000      -1.75668000
O       -3.56350000      -0.10933000      -2.21722000
O        6.09927000      -0.62517000      -1.75668000
O        3.56351000      -0.10933000      -2.21722000
O        2.50737000       3.51794000      -4.68844000
O        1.76282000       3.11690000       5.26382000
O       -6.10013000       1.45160000       1.17508000
O       -2.50822000       5.59471000      -1.75668000
O       -1.68707000       3.14075000      -2.21722000
O        0.00000000       4.93575000      -1.30175000
O        1.79294000      -3.93041000      -4.68844000
O        2.49273000      -1.43918000      -4.21666000
O       -4.27448000      -2.46787000      -1.30175000
O       -3.59105000      -4.96954000      -1.75668000
O       -1.87643000      -3.03142000      -2.21722000
O       -4.30031000       0.41247000      -4.68844000
O       -2.49273000      -1.43918000      -4.21666000
O       -1.90054000       1.09827000      -3.86002000
O       -1.79294000      -3.93041000      -4.68844000
O       -0.00086000      -2.19505000      -3.86002000
O       -4.28998000       0.40353000       2.76733000
O        1.79553000      -3.91699000       2.76733000
O        4.30031000       0.41247000      -4.68844000
O        1.90140000       1.09678000      -3.86002000
O       -2.50736000       3.51794000      -4.68844000
O        0.00000000       2.87836000      -4.21666000
O        2.50909000      -1.44961000       3.32617000
O        1.81790000      -3.08509000       5.26382000
O        0.00086000       2.89774000       3.32617000
O       -1.76282000       3.11690000       5.26382000
O        3.56264000       2.05689000       0.85776000
O        4.28998000       0.40353000       2.76733000
O        6.10014000       1.45160000       1.17508000
O        4.42426000      -0.35383000       0.25399000
O        1.79294000      -6.00867000       1.17508000
O        2.51856000      -3.65460000       0.25399000
O        0.00000000      -2.18461000       3.59294000
O       -1.81790000      -3.08509000       5.26382000
O       -3.56264000       2.05689000       0.85776000
O       -2.49445000       3.51347000       2.76733000
O       -4.30719000       4.55707000       1.17508000
O       -1.90570000       4.00843000       0.25399000
O        3.59105000      -4.96954000      -1.75668000
O        1.87644000      -3.03142000      -2.21722000
H        3.89267000      -0.05269000       6.19261000
H        5.06198000       5.17987000       1.12207000
H        3.10583000       6.30866000      -2.06254000
H       -3.89267000      -0.05269000       6.19261000
H       -1.95491000      -6.97374000       1.12207000
H       -7.01637000      -0.46460000      -2.06254000
H        7.01637000      -0.46460000      -2.06254000
H        3.10486000       4.04128000      -5.26247000
H        1.90070000       3.39750000       6.19261000
H       -7.01689000       1.79387000       1.12207000
H       -3.10583000       6.30866000      -2.06254000
H        1.94742000      -4.70952000      -5.26247000
H       -3.91054000      -5.84405000      -2.06254000
H       -5.05228000       0.66825000      -5.26247000
H       -1.94742000      -4.70952000      -5.26247000
H        5.05228000       0.66825000      -5.26247000
H       -3.10486000       4.04128000      -5.26247000
H        1.99197000      -3.34480000       6.19261000
H       -1.90070000       3.39750000       6.19261000
H        7.01689000       1.79387000       1.12207000
H        1.95491000      -6.97374000       1.12207000
H       -1.99197000      -3.34480000       6.19261000
H       -5.06198000       5.17987000       1.12207000
H        3.91054000      -5.84405000      -2.06254000
