109
Properties=species:S:1:pos:R:3 pbc="F F F"
Sr      -0.04112500      -0.00004500      -0.00056400
Si      -1.53279000      -4.42389000       1.26214000
Al      -4.59792000      -0.88905000      -1.25401000
Si      -3.07181000      -3.53235000      -1.25401000
Si      -3.07009000      -0.00795000      -3.74488000
Si      -1.54484000      -2.64976000      -3.74488000
Si      -3.07439000       0.00249000       3.73897000
Si       1.52115000      -4.42389000       1.26214000
Si      -1.53795000      -2.65870000       3.73897000
Si      -3.07353000       3.53434000       1.26214000
Si       3.06017000      -3.53235000      -1.25401000
Si      -1.53193000       4.42140000      -1.25401000
Si       1.53320000      -2.64976000      -3.74488000
Si      -1.53107000       2.65771000      -3.74488000
Si       1.52632000      -2.65870000       3.73897000
Si      -1.54226000       2.65622000       3.73897000
Si       4.58887000       0.88955000       1.26214000
Si       4.58628000      -0.88905000      -1.25401000
Si       3.05845000      -0.00795000      -3.74488000
Si       3.06276000       0.00249000       3.73897000
Si       3.06190000       3.53434000       1.26214000
Si       1.52029000       4.42140000      -1.25401000
Si       1.51943000       2.65771000      -3.74488000
Si       1.53062000       2.65622000       3.73897000
Al      -4.60050000       0.88955000       1.26214000
O        1.88611000       1.09231000       3.59294000
O        3.57490000      -0.03180000       5.26382000
O        2.48864000       3.51347000       2.76733000
O        4.30138000       4.55707000       1.17508000
O        1.89988000       4.00843000       0.25399000
O        2.50241000       5.59471000      -1.75668000
O        1.68125000       3.14075000      -2.21722000
O        4.26867000      -2.46787000      -1.30175000
O       -2.51576000      -1.44812000       3.32617000
O       -3.58654000      -0.03180000       5.26382000
O       -1.89774000       1.09231000       3.59294000
O       -0.00582000      -4.11379000       0.85776000
O       -1.80134000      -3.91699000       2.76733000
O       -4.43007000      -0.35383000       0.25399000
O       -1.79876000      -6.00867000       1.17508000
O       -2.52437000      -3.65460000       0.25399000
O       -6.10509000      -0.62517000      -1.75668000
O       -3.56932000      -0.10933000      -2.21722000
O        6.09346000      -0.62517000      -1.75668000
O        3.55769000      -0.10933000      -2.21722000
O        2.50155000       3.51794000      -4.68844000
O        1.75700000       3.11690000       5.26382000
O       -6.10595000       1.45160000       1.17508000
O       -2.51404000       5.59471000      -1.75668000
O       -1.69289000       3.14075000      -2.21722000
O       -0.00582000       4.93575000      -1.30175000
O        1.78713000      -3.93041000      -4.68844000
O        2.48692000      -1.43918000      -4.21666000
O       -4.28030000      -2.46787000      -1.30175000
O       -3.59687000      -4.96954000      -1.75668000
O       -1.88225000      -3.03142000      -2.21722000
O       -4.30612000       0.41247000      -4.68844000
O       -2.49855000      -1.43918000      -4.21666000
O       -1.90635000       1.09827000      -3.86002000
O       -1.79876000      -3.93041000      -4.68844000
O       -0.00668000      -2.19505000      -3.86002000
O       -4.29579000       0.40353000       2.76733000
O        1.78971000      -3.91699000       2.76733000
O        4.29449000       0.41247000      -4.68844000
O        1.89558000       1.09678000      -3.86002000
O       -2.51318000       3.51794000      -4.68844000
O       -0.00582000       2.87836000      -4.21666000
O        2.50327000      -1.44962000       3.32617000
O        1.81209000      -3.08509000       5.26382000
O       -0.00496000       2.89774000       3.32617000
O       -1.76863000       3.11690000       5.26382000
O        3.55683000       2.05689000       0.85776000
O        4.28416000       0.40353000       2.76733000
O        6.09432000       1.45160000       1.17508000
O        4.41844000      -0.35383000       0.25399000
O        1.78713000      -6.00867000       1.17508000
O        2.51274000      -3.65460000       0.25399000
O       -0.00582000      -2.18461000       3.59294000
O       -1.82372000      -3.08509000       5.26382000
O       -3.56846000       2.05689000       0.85776000
O       -2.50027000       3.51347000       2.76733000
O       -4.31301000       4.55707000       1.17508000
O       -1.91152000       4.00843000       0.25399000
O        3.58523000      -4.96954000      -1.75668000
O        1.87062000      -3.03142000      -2.21722000
H        3.88685000      -0.05269000       6.19261000
H        5.05617000       5.17987000       1.12207000
H        3.10001000       6.30865000      -2.06254000
H       -3.89849000      -0.05269000       6.19261000
H       -1.96072000      -6.97374000       1.12207000
H       -7.02219000      -0.46460000      -2.06254000
H        7.01055000      -0.46460000      -2.06254000
H        3.09904000       4.04128000      -5.26247000
H        1.89489000       3.39750000       6.19261000
H       -7.02271000       1.79387000       1.12207000
H       -3.11165000       6.30865000      -2.06254000
H        1.94160000      -4.70953000      -5.26247000
H       -3.91636000      -5.84405000      -2.06254000
H       -5.05810000       0.66825000      -5.26247000
H       -1.95324000      -4.70953000      -5.26247000
H        5.04646000       0.66825000      -5.26247000
H       -3.11068000       4.04128000      -5.26247000
H        1.98615000      -3.34480000       6.19261000
H       -1.90652000       3.39750000       6.19261000
H        7.01108000       1.79387000       1.12207000
H        1.94909000      -6.97374000       1.12207000
H       -1.99778000      -3.34480000       6.19261000
H       -5.06780000       5.17987000       1.12207000
H        3.90472000      -5.84405000      -2.06254000
