109
Properties=species:S:1:pos:R:3 pbc="F F F"
Sr      -0.03703300      -0.01283600      -0.00085600
Si      -1.53182000      -4.42556000       1.26214000
Si      -4.59695000      -0.89072000      -1.25401000
Al      -3.07084000      -3.53402000      -1.25401000
Si      -3.06912000      -0.00962000      -3.74488000
Si      -1.54387000      -2.65143000      -3.74488000
Si      -3.07342000       0.00081000       3.73897000
Si       1.52212000      -4.42556000       1.26214000
Si      -1.53699000      -2.66038000       3.73897000
Si      -3.07256000       3.53266000       1.26214000
Si       3.06114000      -3.53402000      -1.25401000
Si      -1.53096000       4.41973000      -1.25401000
Si       1.53417000      -2.65143000      -3.74488000
Si      -1.53010000       2.65604000      -3.74488000
Si       1.52728000      -2.66038000       3.73897000
Si      -1.54129000       2.65455000       3.73897000
Si       4.58983000       0.88787000       1.26214000
Si       4.58725000      -0.89072000      -1.25401000
Si       3.05942000      -0.00962000      -3.74488000
Si       3.06372000       0.00081000       3.73897000
Si       3.06286000       3.53266000       1.26214000
Si       1.52126000       4.41973000      -1.25401000
Si       1.52040000       2.65604000      -3.74488000
Si       1.53159000       2.65455000       3.73897000
Al      -4.59953000       0.88787000       1.26214000
O        1.88708000       1.09063000       3.59294000
O        3.57587000      -0.03348000       5.26382000
O        2.48960000       3.51179000       2.76733000
O        4.30234000       4.55540000       1.17508000
O        1.90085000       4.00676000       0.25399000
O        2.50338000       5.59304000      -1.75668000
O        1.68222000       3.13908000      -2.21722000
O        4.26963000      -2.46955000      -1.30175000
O       -2.51480000      -1.44980000       3.32617000
O       -3.58557000      -0.03348000       5.26382000
O       -1.89678000       1.09063000       3.59294000
O       -0.00485000      -4.11546000       0.85776000
O       -1.80037000      -3.91867000       2.76733000
O       -4.42911000      -0.35551000       0.25399000
O       -1.79779000      -6.01035000       1.17508000
O       -2.52340000      -3.65628000       0.25399000
O       -6.10412000      -0.62684000      -1.75668000
O       -3.56836000      -0.11100000      -2.21722000
O        6.09442000      -0.62684000      -1.75668000
O        3.55865000      -0.11100000      -2.21722000
O        2.50251000       3.51627000      -4.68844000
O        1.75797000       3.11522000       5.26382000
O       -6.10499000       1.44993000       1.17508000
O       -2.51308000       5.59304000      -1.75668000
O       -1.69192000       3.13908000      -2.21722000
O       -0.00485000       4.93408000      -1.30175000
O        1.78809000      -3.93208000      -4.68844000
O        2.48788000      -1.44085000      -4.21666000
O       -4.27933000      -2.46955000      -1.30175000
O       -3.59590000      -4.97122000      -1.75668000
O       -1.88129000      -3.03309000      -2.21722000
O       -4.30516000       0.41080000      -4.68844000
O       -2.49758000      -1.44085000      -4.21666000
O       -1.90539000       1.09660000      -3.86002000
O       -1.79779000      -3.93208000      -4.68844000
O       -0.00571000      -2.19672000      -3.86002000
O       -4.29483000       0.40185000       2.76733000
O        1.79067000      -3.91867000       2.76733000
O        4.29546000       0.41080000      -4.68844000
O        1.89655000       1.09510000      -3.86002000
O       -2.51222000       3.51627000      -4.68844000
O       -0.00485000       2.87669000      -4.21666000
O        2.50424000      -1.45129000       3.32617000
O        1.81305000      -3.08677000       5.26382000
O       -0.00399000       2.89607000       3.32617000
O       -1.76767000       3.11522000       5.26382000
O        3.55779000       2.05522000       0.85776000
O        4.28513000       0.40185000       2.76733000
O        6.09528000       1.44993000       1.17508000
O        4.41940000      -0.35551000       0.25399000
O        1.78809000      -6.01035000       1.17508000
O        2.51370000      -3.65628000       0.25399000
O       -0.00485000      -2.18628000       3.59294000
O       -1.82275000      -3.08677000       5.26382000
O       -3.56749000       2.05522000       0.85776000
O       -2.49930000       3.51179000       2.76733000
O       -4.31204000       4.55540000       1.17508000
O       -1.91055000       4.00676000       0.25399000
O        3.58620000      -4.97122000      -1.75668000
O        1.87158000      -3.03309000      -2.21722000
H        3.88782000      -0.05436000       6.19261000
H        5.05713000       5.17820000       1.12207000
H        3.10098000       6.30698000      -2.06254000
H       -3.89752000      -0.05436000       6.19261000
H       -1.95976000      -6.97542000       1.12207000
H       -7.02122000      -0.46627000      -2.06254000
H        7.01152000      -0.46627000      -2.06254000
H        3.10001000       4.03961000      -5.26247000
H        1.89585000       3.39582000       6.19261000
H       -7.02174000       1.79220000       1.12207000
H       -3.11068000       6.30698000      -2.06254000
H        1.94257000      -4.71120000      -5.26247000
H       -3.91539000      -5.84573000      -2.06254000
H       -5.05713000       0.66657000      -5.26247000
H       -1.95227000      -4.71120000      -5.26247000
H        5.04743000       0.66657000      -5.26247000
H       -3.10971000       4.03961000      -5.26247000
H        1.98712000      -3.34648000       6.19261000
H       -1.90555000       3.39582000       6.19261000
H        7.01204000       1.79220000       1.12207000
H        1.95006000      -6.97542000       1.12207000
H       -1.99682000      -3.34648000       6.19261000
H       -5.06683000       5.17820000       1.12207000
H        3.90569000      -5.84573000      -2.06254000
