73
Properties=species:S:1:pos:R:3 pbc="F F F"
Na       0.17033000       0.40865800      -0.33689000
Al       1.55124000       3.74627000      -1.54438000
Si       3.74412000      -1.54606000       1.54136000
Si      -1.54821000      -3.73894000       1.54136000
Si       1.55124000      -3.73894000       1.54136000
Si       1.55123900       3.74627000       1.54136000
Si      -1.54821000      -3.73894000      -1.54438000
Si       3.74412000      -1.54606000      -1.54438000
Si       1.55124000      -3.73894000      -1.54438000
Si       3.74412000       1.55339000       1.54136000
Si      -3.74109000       1.55339000      -1.54438000
Si       3.74412000       1.55339000      -1.54438000
Si      -1.54821000       3.74627000      -1.54438000
Si      -3.74109000       1.55339000       1.54136000
Si      -3.74109000      -1.54606000       1.54136000
Si      -1.54821000       3.74627000       1.54136000
Si      -3.74109000      -1.54606000      -1.54438000
O        4.94075000       2.07043000      -2.49001000
O       -2.41695000      -2.41481000      -1.83305000
O        0.00152000      -3.43908000      -1.85893000
O        2.06829000       4.94289000       2.48699000
O        2.41999000       2.42214000      -1.83305000
O        1.71519000       4.17364000      -0.00151000
O        2.41999000      -2.41481000       1.83003000
O        0.00152000       3.44641000      -1.85893000
O        2.06829000       4.94289000      -2.49001000
O        4.17149000      -1.71000000      -0.00151000
O        3.44427000       0.00366000       1.85591000
O       -1.71215000       4.17364000      -0.00151000
O       -2.06525000       4.94289000      -2.49001000
O       -2.41695000       2.42214000       1.83003000
O       -3.44123000       0.00366000       1.85591000
O       -4.93771000       2.07043000       2.48699000
O        4.94075000      -2.06311000       2.48699000
O       -2.41695000      -2.41481000       1.83003000
O       -1.71215000      -4.16631000      -0.00151000
O        0.00152000      -3.43908000       1.85591000
O       -2.06525000      -4.93557000       2.48699000
O        1.71519000      -4.16631000      -0.00151000
O        2.06829000      -4.93557000       2.48699000
O        2.41999000       2.42214000       1.83003000
O        0.00152000       3.44641000       1.85591000
O       -2.06525000      -4.93557000      -2.49001000
O       -4.16845000      -1.71000000      -0.00151000
O       -4.93771000      -2.06311000       2.48699000
O       -2.06525000       4.94289000       2.48699000
O       -4.93771000      -2.06311000      -2.49001000
O        2.41999000      -2.41481000      -1.83305000
O        3.44427000       0.00366000      -1.85893000
O        4.94075000      -2.06311000      -2.49001000
O        2.06829000      -4.93557000      -2.49001000
O        4.17149000       1.71733000      -0.00151000
O        4.94075000       2.07043000       2.48699000
O       -2.41695000       2.42214000      -1.83305000
O       -4.16845000       1.71733000      -0.00151000
O       -3.44123000       0.00366000      -1.85893000
O       -4.93771000       2.07043000      -2.49001000
H        5.66894000       2.38507000      -3.06546000
H        2.38293000       5.67108000       3.06244000
H        2.38293000       5.67108000      -3.06546000
H       -2.37989000       5.67108000      -3.06546000
H       -5.66590000       2.38507000       3.06244000
H        5.66894000      -2.37774000       3.06244000
H       -2.37989000      -5.66375000       3.06244000
H        2.38293000      -5.66375000       3.06244000
H       -2.37989000      -5.66375000      -3.06546000
H       -5.66590000      -2.37774000       3.06244000
H       -2.37989000       5.67108000       3.06244000
H       -5.66590000      -2.37774000      -3.06546000
H        5.66894000      -2.37774000      -3.06546000
H        2.38293000      -5.66375000      -3.06546000
H        5.66894000       2.38507000       3.06244000
H       -5.66590000       2.38507000      -3.06546000
