109
Properties=species:S:1:pos:R:3 pbc="F F F"
Sr      -0.00258600      -0.03618600      -0.01341200
Si      -2.16846000      -0.00527000       4.06267000
Si      -1.50159000       3.74985000      -2.93310000
Si       2.30688000       4.55616000      -0.09814000
Si      -4.56194000      -2.31265000      -0.09814000
Si      -4.50859000      -0.00526300       1.96652000
Al       1.50056000      -3.76038000      -2.93310000
Al      -2.30790000      -4.56669000      -0.09814000
Si      -0.00051000       2.16268000       4.06267000
Si       1.50056000       3.74985000      -2.93310000
Si      -2.30790000       4.55616000      -0.09814000
Si      -0.00051000       4.50281000       1.96652000
Si      -0.00051000      -2.17322000       4.06267000
Si       3.75460000       1.49581000      -2.93310000
Si      -1.50159000      -3.76038000      -2.93310000
Si       2.30688000      -4.56669000      -0.09814000
Si      -0.00051000      -4.51334000       1.96652000
Si      -3.75562000      -1.50634000      -2.93310000
Si      -4.56194000       2.30212000      -0.09814000
Si      -3.75562000       1.49581000      -2.93310000
Si       4.56091000      -2.31265000      -0.09814000
Si       2.16744000      -0.00527000       4.06267000
Si       3.75460000      -1.50634000      -2.93310000
Si       4.56091000       2.30212000      -0.09814000
Si       4.50756000      -0.00527000       1.96652000
O       -4.75351000       1.89957000      -4.13009000
O        4.51241000      -1.55484000      -1.51562000
O        4.15715000      -1.31477000       1.09885000
O        6.06199000      -2.84130000       0.15672000
O        3.57273000      -0.00527000       3.27805000
O        2.47178000      -0.00527000       5.64338000
O        4.75249000      -1.91010000      -4.13009000
O       -1.31001000       4.15240000       1.09885000
O       -6.06301000      -0.00527600       2.38460000
O        1.54906000      -4.51819000      -1.51562000
O       -4.15817000       1.30423000       1.09885000
O       -3.57375000      -0.00527100       3.27805000
O       -2.47280000      -0.00527000       5.64338000
O       -1.55009000       4.50766000      -1.51562000
O       -1.31486000      -1.31962000       3.69040000
O       -1.31486000       1.30908000       3.69040000
O       -1.90535000       4.74773000      -4.13009000
O       -0.00051000       3.22120000      -3.18796000
O       -4.75351000      -1.91010000      -4.13009000
O       -3.22697000      -0.00527000      -3.18796000
O        4.15715000       1.30423000       1.09885000
O        6.06199000       2.83077000       0.15672000
O        6.06199000      -0.00527000       2.38460000
O       -2.83655000       6.05723000       0.15672000
O       -3.57254000       3.56676000      -0.12391000
O       -0.00051000       6.05723000       2.38460000
O       -0.00051000      -3.57850000       3.27805000
O       -0.00051000      -2.47755000       5.64338000
O       -2.49099000       2.48521000      -2.90733000
O        1.54906000       4.50766000      -1.51562000
O        1.30899000       4.15240000       1.09885000
O        2.83553000       6.05723000       0.15672000
O        3.57151000       3.56676000      -0.12391000
O       -4.51344000      -1.55484000      -1.51562000
O       -4.15817000      -1.31477000       1.09885000
O       -6.06301000      -2.84130000       0.15672000
O       -3.57254000      -3.57729000      -0.12391000
O        1.90433000      -4.75827000      -4.13009000
O       -4.51344000       1.54431000      -1.51562000
O       -6.06301000       2.83077000       0.15672000
O        1.31384000      -1.31962000       3.69040000
O        4.51241000       1.54431000      -1.51562000
O        4.75249000       1.89957000      -4.13009000
O        3.22595000      -0.00527000      -3.18796000
O       -1.90535000      -4.75827000      -4.13009000
O       -2.49099000      -2.49574000      -2.90733000
O        1.30899000      -4.16293000       1.09885000
O        2.83553000      -6.06777000       0.15672000
O        3.57151000      -3.57729000      -0.12391000
O       -0.00051000      -6.06777000       2.38460000
O       -0.00051000      -3.23173000      -3.18796000
O        2.48996000      -2.49574000      -2.90733000
O       -1.55009000      -4.51819000      -1.51562000
O       -1.31001000      -4.16293000       1.09885000
O       -2.83655000      -6.06777000       0.15672000
O       -0.00051000       3.56797000       3.27805000
O       -0.00051000       2.46702000       5.64338000
O        1.31384000       1.30908000       3.69040000
O        1.90433000       4.74773000      -4.13009000
O        2.48996000       2.48521000      -2.90733000
H       -5.36098000       2.14537000      -4.85876000
H        6.97471000      -3.16275000       0.31169000
H        2.65706000      -0.00527000       6.60571000
H        5.35996000      -2.15590000      -4.85876000
H       -7.00938000      -0.00526900       2.63914000
H       -2.65808000      -0.00527000       6.60571000
H       -2.15114000       5.35521000      -4.85876000
H       -5.36098000      -2.15590000      -4.85876000
H        6.97471000       3.15221000       0.31169000
H        7.00836000      -0.00527000       2.63914000
H       -3.15799000       6.96996000       0.31169000
H       -0.00051000       7.00360000       2.63914000
H       -0.00051000      -2.66283000       6.60571000
H        3.15697000       6.96996000       0.31169000
H       -6.97573000      -3.16275000       0.31169000
H        2.15012000      -5.36574000      -4.85876000
H       -6.97573000       3.15221000       0.31169000
H        5.35996000       2.14537000      -4.85876000
H       -2.15114000      -5.36574000      -4.85876000
H        3.15697000      -6.98049000       0.31169000
H       -0.00051000      -7.01413000       2.63914000
H       -3.15799000      -6.98049000       0.31169000
H       -0.00051000       2.65230000       6.60571000
H        2.15012000       5.35521000      -4.85876000
