109
Properties=species:S:1:pos:R:3 pbc="F F F"
Cs      -0.02816900      -0.00002400       0.01539500
Si      -2.17073000       0.00000000       4.06576000
Si      -1.50386000       3.75511000      -2.93002000
Si       2.30461000       4.56143000      -0.09505000
Si      -4.56421000      -2.30739000      -0.09505000
Al      -4.51086000       0.00000000       1.96960000
Si       1.49829000      -3.75511000      -2.93002000
Si      -2.31017000      -4.56142000      -0.09505000
Si      -0.00278000       2.16795000       4.06576000
Si       1.49829000       3.75511000      -2.93002000
Si      -2.31017000       4.56143000      -0.09505000
Si      -0.00278100       4.50808000       1.96960000
Si      -0.00278000      -2.16795000       4.06576000
Si       3.75233000       1.50108000      -2.93002000
Si      -1.50386000      -3.75511000      -2.93002000
Si       2.30461000      -4.56142000      -0.09505000
Si      -0.00278000      -4.50807000       1.96960000
Si      -3.75789000      -1.50107000      -2.93002000
Si      -4.56421000       2.30739000      -0.09505000
Si      -3.75789000       1.50108000      -2.93002000
Si       4.55864000      -2.30739000      -0.09505000
Si       2.16517000       0.00000000       4.06576000
Si       3.75233000      -1.50107000      -2.93002000
Si       4.55864000       2.30739000      -0.09505000
Si       4.50529000       0.00000000       1.96960000
O       -4.75578000       1.90484000      -4.12700000
O        4.51014000      -1.54957000      -1.51253000
O        4.15488000      -1.30950000       1.10193000
O        6.05972000      -2.83604000       0.15981000
O        3.57046000       0.00000000       3.28113000
O        2.46951000       0.00000000       5.64647000
O        4.75022000      -1.90484000      -4.12700000
O       -1.31228000       4.15766000       1.10193000
O       -6.06528000       0.00000000       2.38769000
O        1.54679000      -4.51292000      -1.51253000
O       -4.16044000       1.30950000       1.10193000
O       -3.57602000       0.00000000       3.28113000
O       -2.47507000       0.00000000       5.64647000
O       -1.55236000       4.51293000      -1.51253000
O       -1.31713000      -1.31435000       3.69349000
O       -1.31713000       1.31435000       3.69349000
O       -1.90762000       4.75300000      -4.12700000
O       -0.00278000       3.22646000      -3.18488000
O       -4.75578000      -1.90484000      -4.12700000
O       -3.22924000       0.00000000      -3.18488000
O        4.15488000       1.30950000       1.10193000
O        6.05972000       2.83604000       0.15981000
O        6.05972000       0.00000000       2.38769000
O       -2.83882000       6.06250000       0.15981000
O       -3.57481000       3.57203000      -0.12082000
O       -0.00277900       6.06250000       2.38769000
O       -0.00278000      -3.57324000       3.28113000
O       -0.00278000      -2.47229000       5.64647000
O       -2.49326000       2.49048000      -2.90424000
O        1.54679000       4.51293000      -1.51253000
O        1.30672000       4.15766000       1.10193000
O        2.83326000       6.06250000       0.15981000
O        3.56924000       3.57203000      -0.12082000
O       -4.51571000      -1.54957000      -1.51253000
O       -4.16044000      -1.30950000       1.10193000
O       -6.06528000      -2.83604000       0.15981000
O       -3.57481000      -3.57202000      -0.12082000
O        1.90206000      -4.75300000      -4.12700000
O       -4.51571000       1.54958000      -1.51253000
O       -6.06528000       2.83604000       0.15981000
O        1.31157000      -1.31435000       3.69349000
O        4.51014000       1.54958000      -1.51253000
O        4.75022000       1.90484000      -4.12700000
O        3.22368000       0.00000000      -3.18488000
O       -1.90762000      -4.75300000      -4.12700000
O       -2.49326000      -2.49047000      -2.90424000
O        1.30672000      -4.15766000       1.10193000
O        2.83326000      -6.06250000       0.15981000
O        3.56924000      -3.57202000      -0.12082000
O       -0.00278000      -6.06250000       2.38769000
O       -0.00278000      -3.22646000      -3.18488000
O        2.48769000      -2.49047000      -2.90424000
O       -1.55236000      -4.51292000      -1.51253000
O       -1.31228000      -4.15766000       1.10193000
O       -2.83882000      -6.06250000       0.15981000
O       -0.00278000       3.57324000       3.28113000
O       -0.00278000       2.47229000       5.64647000
O        1.31157000       1.31435000       3.69349000
O        1.90206000       4.75300000      -4.12700000
O        2.48769000       2.49048000      -2.90424000
H       -5.36325000       2.15063000      -4.85567000
H        6.97244000      -3.15748000       0.31478000
H        2.65479000       0.00000000       6.60879000
H        5.35769000      -2.15063000      -4.85567000
H       -7.01165000       0.00000000       2.64223000
H       -2.66035000       0.00000000       6.60879000
H       -2.15341000       5.36047000      -4.85567000
H       -5.36325000      -2.15063000      -4.85567000
H        6.97244000       3.15748000       0.31478000
H        7.00609000       0.00000000       2.64223000
H       -3.16026000       6.97522000       0.31478000
H       -0.00278000       7.00887000       2.64223000
H       -0.00278000      -2.65757000       6.60879000
H        3.15470000       6.97522000       0.31478000
H       -6.97800000      -3.15748000       0.31478000
H        2.14785000      -5.36047000      -4.85567000
H       -6.97800000       3.15748000       0.31478000
H        5.35769000       2.15063000      -4.85567000
H       -2.15341000      -5.36047000      -4.85567000
H        3.15470000      -6.97522000       0.31478000
H       -0.00278000      -7.00887000       2.64223000
H       -3.16026000      -6.97522000       0.31478000
H       -0.00278000       2.65757000       6.60879000
H        2.14785000       5.36047000      -4.85567000
