145
Properties=species:S:1:pos:R:3 pbc="F F F"
Sr       0.03291600      -0.00070900      -0.03254900
Si      -3.34706000       1.55498000       5.53369000
Si       3.75531000      -3.34961000       1.55243000
Si      -3.75020000       3.34961000      -1.55753000
Si       5.53880000       1.55498000       3.34706000
Si      -5.53369000      -1.55498000       3.34706000
Si       3.35216000      -1.55498000      -5.53880000
Si       1.55753000       3.34961000       3.75020000
Si      -1.55243000      -3.34961000      -3.75531000
Al       3.75531000      -3.34961000      -1.55753000
Si       3.35216000       1.55498000      -5.53880000
Si      -3.75020000       3.34961000       1.55243000
Si       5.53880000       1.55498000      -3.35216000
Si      -5.53369000       1.55498000      -3.35216000
Si      -3.34706000      -1.55498000       5.53369000
Al       1.55753000       3.34961000      -3.75531000
Si      -3.75020000      -3.34961000       1.55243000
Si      -1.55243000      -3.34961000       3.75020000
Si       5.53880000      -1.55498000       3.34706000
Si       3.35216000       1.55498000       5.53369000
Si      -5.53369000       1.55498000       3.34706000
Si      -3.34706000      -1.55498000      -5.53880000
Si       1.55753000      -3.34961000       3.75020000
Si       3.75531000       3.34961000      -1.55753000
Si      -1.55243000       3.34961000      -3.75531000
Si      -3.34706000       1.55498000      -5.53880000
Si      -3.75020000      -3.34961000      -1.55753000
Si       5.53880000      -1.55498000      -3.35216000
Si      -5.53369000      -1.55498000      -3.35216000
Si       1.55753000      -3.34961000      -3.75531000
Si       3.35216000      -1.55498000       5.53369000
Si       3.75531000       3.34961000       1.55243000
Si      -1.55243000       3.34961000       3.75020000
O       -6.92518000       2.36126000       3.43624000
O        1.70801000       4.74111000      -4.55045000
O        2.36382000       3.43879000      -2.36382000
O       -3.44553000      -3.06909000      -0.00255000
O       -4.54534000      -4.74111000       1.70291000
O       -2.35871000      -3.43879000       2.35871000
O        0.00255000      -3.06909000       3.44553000
O       -1.70291000      -4.74111000       4.54534000
O       -2.14878000      -2.15133000      -4.64705000
O       -4.73855000      -1.70546000       4.73855000
O       -4.64195000      -2.15133000       2.14878000
O       -2.35871000      -3.43879000      -2.36382000
O        4.55045000      -4.74111000      -1.70801000
O        4.64705000      -2.15133000      -2.15388000
O        2.36382000      -3.43879000      -2.36382000
O        4.74366000       1.70546000      -4.74366000
O       -5.83837000       0.00000000       3.06653000
O       -3.06653000       0.00000000       5.83837000
O       -4.73855000       1.70546000       4.73855000
O        3.45063000      -3.06909000      -0.00255000
O       -2.14878000       2.15133000       4.64195000
O       -3.43624000       2.36126000       6.92518000
O        4.55045000      -4.74111000       1.70291000
O        4.64705000      -2.15133000       2.14878000
O       -6.92518000       2.36126000      -3.44134000
O       -2.14878000      -2.15133000       4.64195000
O        1.70801000      -4.74111000      -4.55045000
O        3.07164000       0.00000000      -5.84347000
O        4.74366000      -1.70546000      -4.74366000
O        2.15388000      -2.15133000      -4.64705000
O        3.44134000      -2.36126000      -6.93029000
O        0.00255000       3.06909000       3.44553000
O        1.70801000       4.74111000       4.54534000
O        2.15388000       2.15133000       4.64195000
O        2.36382000       3.43879000       2.35871000
O        0.00255000      -3.06909000      -3.45063000
O       -1.70291000      -4.74111000      -4.55045000
O        3.44134000      -2.36126000       6.92518000
O        4.55045000       4.74111000       1.70291000
O       -1.70291000       4.74111000       4.54534000
O        2.36382000      -3.43879000       2.35871000
O       -3.44553000       3.06909000      -0.00255000
O       -4.54534000       4.74111000      -1.70801000
O       -4.64195000       2.15133000      -2.15388000
O       -2.35871000       3.43879000      -2.36382000
O        5.84347000       0.00000000       3.06653000
O        4.74366000       1.70546000       4.73855000
O        4.64705000       2.15133000       2.14878000
O        6.93029000       2.36126000       3.43624000
O       -6.92518000      -2.36126000       3.43624000
O        1.70801000      -4.74111000       4.54534000
O        2.15388000      -2.15133000       4.64195000
O        3.45063000       3.06909000      -0.00255000
O       -3.06653000       0.00000000      -5.84347000
O       -4.73855000      -1.70546000      -4.74366000
O       -3.43624000      -2.36126000      -6.93029000
O        4.74366000      -1.70546000       4.73855000
O        6.93029000      -2.36126000       3.43624000
O        3.07164000       0.00000000       5.83837000
O        3.44134000       2.36126000       6.92518000
O       -3.43624000      -2.36126000       6.92518000
O        0.00255000       3.06909000      -3.45063000
O        2.15388000       2.15133000      -4.64705000
O        3.44134000       2.36126000      -6.93029000
O       -4.54534000       4.74111000       1.70291000
O       -4.64195000       2.15133000       2.14878000
O       -2.35871000       3.43879000       2.35871000
O        5.84347000       0.00000000      -3.07164000
O        4.64705000       2.15133000      -2.15388000
O        6.93029000       2.36126000      -3.44134000
O       -5.83837000       0.00000000      -3.07164000
O       -4.73855000       1.70546000      -4.74366000
O        4.55045000       4.74111000      -1.70801000
O       -1.70291000       4.74111000      -4.55045000
O       -2.14878000       2.15133000      -4.64705000
O       -3.43624000       2.36126000      -6.93029000
O       -4.54534000      -4.74111000      -1.70801000
O       -4.64195000      -2.15133000      -2.15388000
O        6.93029000      -2.36126000      -3.44134000
O       -6.92518000      -2.36126000      -3.44134000
H       -7.77182000       2.85184000       3.49049000
H        1.79963000       5.58826000      -5.03453000
H       -5.02943000      -5.58826000       1.79452000
H       -1.79452000      -5.58826000       5.02943000
H        5.03453000      -5.58826000      -1.79963000
H       -3.49049000       2.85184000       7.77182000
H        5.03453000      -5.58826000       1.79452000
H       -7.77182000       2.85184000      -3.49560000
H        1.79963000      -5.58826000      -5.03453000
H        3.49560000      -2.85184000      -7.77692000
H        1.79963000       5.58826000       5.02943000
H       -1.79452000      -5.58826000      -5.03453000
H        3.49560000      -2.85184000       7.77182000
H        5.03453000       5.58826000       1.79452000
H       -1.79452000       5.58826000       5.02943000
H       -5.02943000       5.58826000      -1.79963000
H        7.77692000       2.85184000       3.49049000
H       -7.77182000      -2.85184000       3.49049000
H        1.79963000      -5.58826000       5.02943000
H       -3.49049000      -2.85184000      -7.77692000
H        7.77692000      -2.85184000       3.49049000
H        3.49560000       2.85184000       7.77182000
H       -3.49049000      -2.85184000       7.77182000
H        3.49560000       2.85184000      -7.77692000
H       -5.02943000       5.58826000       1.79452000
H        7.77692000       2.85184000      -3.49560000
H        5.03453000       5.58826000      -1.79963000
H       -1.79452000       5.58826000      -5.03453000
H       -3.49049000       2.85184000      -7.77692000
H       -5.02943000      -5.58826000      -1.79963000
H        7.77692000      -2.85184000      -3.49560000
H       -7.77182000      -2.85184000      -3.49560000
