109
Properties=species:S:1:pos:R:3 pbc="F F F"
Rb      -0.01289900      -0.00009700       0.03231500
Al      -2.16932000       0.00000000       4.06717000
Si      -1.50245000       3.75511000      -2.92861000
Si       2.30601000       4.56143000      -0.09365000
Si      -4.56280000      -2.30739000      -0.09365000
Si      -4.50945000       0.00000000       1.97101000
Si       1.49970000      -3.75511000      -2.92861000
Si      -2.30876000      -4.56142000      -0.09365000
Si      -0.00137000       2.16795000       4.06717000
Si       1.49970000       3.75511000      -2.92861000
Si      -2.30876000       4.56143000      -0.09365000
Si      -0.00137100       4.50808000       1.97101000
Si      -0.00137000      -2.16795000       4.06717000
Si       3.75374000       1.50108000      -2.92861000
Si      -1.50245000      -3.75511000      -2.92861000
Si       2.30601000      -4.56142000      -0.09365000
Si      -0.00137000      -4.50807000       1.97101000
Si      -3.75649000      -1.50107000      -2.92861000
Si      -4.56280000       2.30739000      -0.09365000
Si      -3.75649000       1.50108000      -2.92861000
Si       4.56005000      -2.30739000      -0.09365000
Si       2.16658000       0.00000000       4.06717000
Si       3.75374000      -1.50107000      -2.92861000
Si       4.56005000       2.30739000      -0.09365000
Si       4.50670000       0.00000000       1.97101000
O       -4.75437000       1.90484000      -4.12559000
O        4.51155000      -1.54957000      -1.51113000
O        4.15629000      -1.30950000       1.10334000
O        6.06113000      -2.83604000       0.16121000
O        3.57186000       0.00000000       3.28254000
O        2.47091000       0.00000000       5.64787000
O        4.75163000      -1.90484000      -4.12559000
O       -1.31087000       4.15766000       1.10334000
O       -6.06387000       0.00000000       2.38910000
O        1.54820000      -4.51292000      -1.51113000
O       -4.15904000       1.30950000       1.10334000
O       -3.57461000       0.00000000       3.28254000
O       -2.47366000       0.00000000       5.64787000
O       -1.55095000       4.51293000      -1.51113000
O       -1.31572000      -1.31435000       3.69490000
O       -1.31572000       1.31435000       3.69490000
O       -1.90621000       4.75300000      -4.12559000
O       -0.00137000       3.22646000      -3.18347000
O       -4.75437000      -1.90484000      -4.12559000
O       -3.22784000       0.00000000      -3.18347000
O        4.15629000       1.30950000       1.10334000
O        6.06113000       2.83604000       0.16121000
O        6.06113000       0.00000000       2.38910000
O       -2.83741000       6.06250000       0.16121000
O       -3.57340000       3.57203000      -0.11942000
O       -0.00136900       6.06250000       2.38910000
O       -0.00137000      -3.57324000       3.28254000
O       -0.00137000      -2.47229000       5.64787000
O       -2.49185000       2.49048000      -2.90284000
O        1.54820000       4.51293000      -1.51113000
O        1.30813000       4.15766000       1.10334000
O        2.83466000       6.06250000       0.16121000
O        3.57065000       3.57203000      -0.11942000
O       -4.51430000      -1.54957000      -1.51113000
O       -4.15904000      -1.30950000       1.10334000
O       -6.06387000      -2.83604000       0.16121000
O       -3.57340000      -3.57202000      -0.11942000
O        1.90346000      -4.75300000      -4.12559000
O       -4.51430000       1.54958000      -1.51113000
O       -6.06387000       2.83604000       0.16121000
O        1.31298000      -1.31435000       3.69490000
O        4.51155000       1.54958000      -1.51113000
O        4.75163000       1.90484000      -4.12559000
O        3.22509000       0.00000000      -3.18347000
O       -1.90621000      -4.75300000      -4.12559000
O       -2.49185000      -2.49047000      -2.90284000
O        1.30813000      -4.15766000       1.10334000
O        2.83466000      -6.06250000       0.16121000
O        3.57065000      -3.57202000      -0.11942000
O       -0.00137000      -6.06250000       2.38910000
O       -0.00137000      -3.22646000      -3.18347000
O        2.48910000      -2.49047000      -2.90284000
O       -1.55095000      -4.51292000      -1.51113000
O       -1.31087000      -4.15766000       1.10334000
O       -2.83741000      -6.06250000       0.16121000
O       -0.00137000       3.57324000       3.28254000
O       -0.00137000       2.47229000       5.64787000
O        1.31298000       1.31435000       3.69490000
O        1.90346000       4.75300000      -4.12559000
O        2.48910000       2.49048000      -2.90284000
H       -5.36184000       2.15063000      -4.85427000
H        6.97385000      -3.15748000       0.31618000
H        2.65619000       0.00000000       6.61020000
H        5.35910000      -2.15063000      -4.85427000
H       -7.01024000       0.00000000       2.64363000
H       -2.65894000       0.00000000       6.61020000
H       -2.15200000       5.36047000      -4.85427000
H       -5.36184000      -2.15063000      -4.85427000
H        6.97385000       3.15748000       0.31618000
H        7.00749000       0.00000000       2.64363000
H       -3.15885000       6.97522000       0.31618000
H       -0.00137000       7.00887000       2.64363000
H       -0.00137000      -2.65757000       6.61020000
H        3.15611000       6.97522000       0.31618000
H       -6.97659000      -3.15748000       0.31618000
H        2.14926000      -5.36047000      -4.85427000
H       -6.97659000       3.15748000       0.31618000
H        5.35910000       2.15063000      -4.85427000
H       -2.15200000      -5.36047000      -4.85427000
H        3.15611000      -6.97522000       0.31618000
H       -0.00137000      -7.00887000       2.64363000
H       -3.15885000      -6.97522000       0.31618000
H       -0.00137000       2.65757000       6.61020000
H        2.14926000       5.36047000      -4.85427000
