145
Properties=species:S:1:pos:R:3 pbc="F F F"
Na       0.02604600      -0.02770000       0.01074700
Si      -3.34776000       1.55332000       5.53701000
Al       3.75461000      -3.35127000       1.55575000
Si      -3.75090000       3.34796000      -1.55421000
Si       5.53810000       1.55332000       3.35038000
Si      -5.53439000      -1.55664000       3.35038000
Si       3.35147000      -1.55664000      -5.53548000
Si       1.55683000       3.34796000       3.75352000
Si      -1.55312000      -3.35127000      -3.75199000
Si       3.75461000      -3.35127000      -1.55421000
Si       3.35147000       1.55332000      -5.53548000
Si      -3.75090000       3.34796000       1.55575000
Si       5.53810000       1.55332000      -3.34884000
Si      -5.53439000       1.55332000      -3.34884000
Si      -3.34776000      -1.55664000       5.53701000
Si       1.55683000       3.34796000      -3.75199000
Si      -3.75090000      -3.35127000       1.55575000
Si      -1.55312000      -3.35127000       3.75352000
Si       5.53810000      -1.55664000       3.35038000
Si       3.35147000       1.55332000       5.53701000
Si      -5.53439000       1.55332000       3.35038000
Si      -3.34776000      -1.55664000      -5.53548000
Si       1.55683000      -3.35127000       3.75352000
Si       3.75461000       3.34796000      -1.55421000
Si      -1.55312000       3.34796000      -3.75199000
Si      -3.34776000       1.55332000      -5.53548000
Si      -3.75090000      -3.35127000      -1.55421000
Si       5.53810000      -1.55664000      -3.34884000
Si      -5.53439000      -1.55664000      -3.34884000
Si       1.55683000      -3.35127000      -3.75199000
Si       3.35147000      -1.55664000       5.53701000
Si       3.75461000       3.34796000       1.55575000
Si      -1.55312000       3.34796000       3.75352000
O       -6.92588000       2.35961000       3.43956000
O        1.70732000       4.73945000      -4.54713000
O        2.36312000       3.43713000      -2.36050000
O       -3.44622000      -3.07074000       0.00077000
O       -4.54604000      -4.74276000       1.70623000
O       -2.35941000      -3.44044000       2.36203000
O        0.00186000      -3.07074000       3.44885000
O       -1.70360000      -4.74276000       4.54866000
O       -2.14948000      -2.15299000      -4.64373000
O       -4.73925000      -1.70712000       4.74187000
O       -4.64264000      -2.15299000       2.15210000
O       -2.35941000      -3.44044000      -2.36050000
O        4.54975000      -4.74276000      -1.70469000
O        4.64636000      -2.15299000      -2.15056000
O        2.36312000      -3.44044000      -2.36050000
O        4.74296000       1.70380000      -4.74034000
O       -5.83907000      -0.00166000       3.06985000
O       -3.06723000      -0.00166000       5.84169000
O       -4.73925000       1.70380000       4.74187000
O        3.44993000      -3.07074000       0.00077000
O       -2.14948000       2.14968000       4.64527000
O       -3.43693000       2.35961000       6.92850000
O        4.54975000      -4.74276000       1.70623000
O        4.64636000      -2.15299000       2.15210000
O       -6.92588000       2.35961000      -3.43802000
O       -2.14948000      -2.15299000       4.64527000
O        1.70732000      -4.74276000      -4.54713000
O        3.07094000      -0.00166000      -5.84015000
O        4.74296000      -1.70712000      -4.74034000
O        2.15319000      -2.15299000      -4.64373000
O        3.44064000      -2.36292000      -6.92697000
O        0.00186000       3.06743000       3.44885000
O        1.70732000       4.73945000       4.54866000
O        2.15319000       2.14968000       4.64527000
O        2.36312000       3.43713000       2.36203000
O        0.00186000      -3.07074000      -3.44731000
O       -1.70360000      -4.74276000      -4.54713000
O        3.44064000      -2.36292000       6.92850000
O        4.54975000       4.73945000       1.70623000
O       -1.70360000       4.73945000       4.54866000
O        2.36312000      -3.44044000       2.36203000
O       -3.44622000       3.06743000       0.00077000
O       -4.54604000       4.73945000      -1.70469000
O       -4.64264000       2.14968000      -2.15056000
O       -2.35941000       3.43713000      -2.36050000
O        5.84278000      -0.00166000       3.06985000
O        4.74296000       1.70380000       4.74187000
O        4.64636000       2.14968000       2.15210000
O        6.92959000       2.35961000       3.43956000
O       -6.92588000      -2.36292000       3.43956000
O        1.70732000      -4.74276000       4.54866000
O        2.15319000      -2.15299000       4.64527000
O        3.44993000       3.06743000       0.00077000
O       -3.06723000      -0.00166000      -5.84015000
O       -4.73925000      -1.70712000      -4.74034000
O       -3.43693000      -2.36292000      -6.92697000
O        4.74296000      -1.70712000       4.74187000
O        6.92959000      -2.36292000       3.43956000
O        3.07094000      -0.00166000       5.84169000
O        3.44064000       2.35961000       6.92850000
O       -3.43693000      -2.36292000       6.92850000
O        0.00186000       3.06743000      -3.44731000
O        2.15319000       2.14968000      -4.64373000
O        3.44064000       2.35961000      -6.92697000
O       -4.54604000       4.73945000       1.70623000
O       -4.64264000       2.14968000       2.15210000
O       -2.35941000       3.43713000       2.36203000
O        5.84278000      -0.00166000      -3.06832000
O        4.64636000       2.14968000      -2.15056000
O        6.92959000       2.35961000      -3.43802000
O       -5.83907000      -0.00166000      -3.06832000
O       -4.73925000       1.70380000      -4.74034000
O        4.54975000       4.73945000      -1.70469000
O       -1.70360000       4.73945000      -4.54713000
O       -2.14948000       2.14968000      -4.64373000
O       -3.43693000       2.35961000      -6.92697000
O       -4.54604000      -4.74276000      -1.70469000
O       -4.64264000      -2.15299000      -2.15056000
O        6.92959000      -2.36292000      -3.43802000
O       -6.92588000      -2.36292000      -3.43802000
H       -7.77252000       2.85018000       3.49381000
H        1.79893000       5.58660000      -5.03121000
H       -5.03013000      -5.58991000       1.79784000
H       -1.79522000      -5.58991000       5.03275000
H        5.03384000      -5.58991000      -1.79631000
H       -3.49119000       2.85018000       7.77514000
H        5.03384000      -5.58991000       1.79784000
H       -7.77252000       2.85018000      -3.49228000
H        1.79893000      -5.58991000      -5.03121000
H        3.49490000      -2.85349000      -7.77360000
H        1.79893000       5.58660000       5.03275000
H       -1.79522000      -5.58991000      -5.03121000
H        3.49490000      -2.85349000       7.77514000
H        5.03384000       5.58660000       1.79784000
H       -1.79522000       5.58660000       5.03275000
H       -5.03013000       5.58660000      -1.79631000
H        7.77623000       2.85018000       3.49381000
H       -7.77252000      -2.85349000       3.49381000
H        1.79893000      -5.58991000       5.03275000
H       -3.49119000      -2.85349000      -7.77360000
H        7.77623000      -2.85349000       3.49381000
H        3.49490000       2.85018000       7.77514000
H       -3.49119000      -2.85349000       7.77514000
H        3.49490000       2.85018000      -7.77360000
H       -5.03013000       5.58660000       1.79784000
H        7.77623000       2.85018000      -3.49228000
H        5.03384000       5.58660000      -1.79631000
H       -1.79522000       5.58660000      -5.03121000
H       -3.49119000       2.85018000      -7.77360000
H       -5.03013000      -5.58991000      -1.79631000
H        7.77623000      -2.85349000      -3.49228000
H       -7.77252000      -2.85349000      -3.49228000
