109
Properties=species:S:1:pos:R:3 pbc="F F F"
Sr      -0.01743200       0.01116900      -0.02917100
Si      -1.52891000      -4.42277000       1.25897000
Al      -4.59404000      -0.88793000      -1.25718000
Si      -3.06793000      -3.53123000      -1.25718000
Si      -3.06621000      -0.00683000      -3.74805000
Si      -1.54096000      -2.64864000      -3.74805000
Si      -3.07052000       0.00360000       3.73580000
Si       1.52503000      -4.42277000       1.25897000
Si      -1.53408000      -2.65759000       3.73580000
Si      -3.06965000       3.53546000       1.25897000
Si       3.06405000      -3.53123000      -1.25718000
Si      -1.52805000       4.42252000      -1.25718000
Si       1.53708000      -2.64864000      -3.74805000
Si      -1.52719000       2.65883000      -3.74805000
Si       1.53019000      -2.65759000       3.73580000
Si      -1.53838000       2.65734000       3.73580000
Si       4.59274000       0.89067000       1.25897000
Si       4.59016000      -0.88793000      -1.25718000
Si       3.06233000      -0.00683000      -3.74805000
Si       3.06663000       0.00360000       3.73580000
Si       3.06577000       3.53546000       1.25897000
Si       1.52417000       4.42252000      -1.25718000
Al       1.52331000       2.65883000      -3.74805000
Si       1.53450000       2.65734000       3.73580000
Si      -4.59662000       0.89067000       1.25897000
O        1.88999000       1.09342000       3.58977000
O        3.57878000      -0.03069000       5.26065000
O        2.49251000       3.51459000       2.76416000
O        4.30525000       4.55819000       1.17191000
O        1.90376000       4.00955000       0.25082000
O        2.50628000       5.59583000      -1.75985000
O        1.68513000       3.14187000      -2.22039000
O        4.27254000      -2.46676000      -1.30492000
O       -2.51189000      -1.44701000       3.32299000
O       -3.58266000      -0.03069000       5.26065000
O       -1.89387000       1.09342000       3.58977000
O       -0.00194000      -4.11267000       0.85459000
O       -1.79747000      -3.91587000       2.76416000
O       -4.42620000      -0.35271000       0.25082000
O       -1.79488000      -6.00755000       1.17191000
O       -2.52050000      -3.65348000       0.25082000
O       -6.10122000      -0.62405000      -1.75985000
O       -3.56545000      -0.10821000      -2.22039000
O        6.09733000      -0.62405000      -1.75985000
O        3.56156000      -0.10821000      -2.22039000
O        2.50542000       3.51906000      -4.69161000
O        1.76087000       3.11802000       5.26065000
O       -6.10208000       1.45272000       1.17191000
O       -2.51017000       5.59583000      -1.75985000
O       -1.68901000       3.14187000      -2.22039000
O       -0.00194000       4.93687000      -1.30492000
O        1.79100000      -3.92929000      -4.69161000
O        2.49079000      -1.43806000      -4.21983000
O       -4.27643000      -2.46676000      -1.30492000
O       -3.59299000      -4.96842000      -1.75985000
O       -1.87838000      -3.03030000      -2.22039000
O       -4.30225000       0.41359000      -4.69161000
O       -2.49467000      -1.43806000      -4.21983000
O       -1.90248000       1.09939000      -3.86319000
O       -1.79488000      -3.92929000      -4.69161000
O       -0.00280000      -2.19393000      -3.86319000
O       -4.29192000       0.40465000       2.76416000
O        1.79358000      -3.91587000       2.76416000
O        4.29837000       0.41359000      -4.69161000
O        1.89946000       1.09790000      -3.86319000
O       -2.50931000       3.51906000      -4.69161000
O       -0.00194000       2.87948000      -4.21983000
O        2.50714000      -1.44850000       3.32299000
O        1.81596000      -3.08397000       5.26065000
O       -0.00108000       2.89886000       3.32299000
O       -1.76476000       3.11802000       5.26065000
O        3.56070000       2.05801000       0.85459000
O        4.28804000       0.40465000       2.76416000
O        6.09819000       1.45272000       1.17191000
O        4.42231000      -0.35271000       0.25082000
O        1.79100000      -6.00755000       1.17191000
O        2.51661000      -3.65348000       0.25082000
O       -0.00194000      -2.18349000       3.58977000
O       -1.81985000      -3.08397000       5.26065000
O       -3.56459000       2.05801000       0.85459000
O       -2.49639000       3.51459000       2.76416000
O       -4.30913000       4.55819000       1.17191000
O       -1.90764000       4.00955000       0.25082000
O        3.58911000      -4.96842000      -1.75985000
O        1.87449000      -3.03030000      -2.22039000
H        3.89073000      -0.05157000       6.18944000
H        5.06004000       5.18099000       1.11890000
H        3.10389000       6.30977000      -2.06571000
H       -3.89461000      -0.05157000       6.18944000
H       -1.95685000      -6.97262000       1.11890000
H       -7.01831000      -0.46348000      -2.06571000
H        7.01443000      -0.46348000      -2.06571000
H        3.10292000       4.04240000      -5.26564000
H        1.89876000       3.39862000       6.18944000
H       -7.01883000       1.79499000       1.11890000
H       -3.10777000       6.30977000      -2.06571000
H        1.94548000      -4.70841000      -5.26564000
H       -3.91248000      -5.84294000      -2.06571000
H       -5.05422000       0.66937000      -5.26564000
H       -1.94936000      -4.70841000      -5.26564000
H        5.05034000       0.66937000      -5.26564000
H       -3.10680000       4.04240000      -5.26564000
H        1.99002000      -3.34369000       6.18944000
H       -1.90264000       3.39862000       6.18944000
H        7.01495000       1.79499000       1.11890000
H        1.95297000      -6.97262000       1.11890000
H       -1.99391000      -3.34369000       6.18944000
H       -5.06393000       5.18099000       1.11890000
H        3.90860000      -5.84294000      -2.06571000
