109
Properties=species:S:1:pos:R:3 pbc="F F F"
Rb      -0.00896500      -0.02892400       0.00784300
Al      -1.52794000      -4.42669000       1.26293000
Si      -4.59307000      -0.89185000      -1.25321000
Si      -3.06696000      -3.53515000      -1.25321000
Si      -3.06524000      -0.01075000      -3.74409000
Si      -1.53999000      -2.65256000      -3.74409000
Si      -3.06954000      -0.00032000       3.73976000
Si       1.52600000      -4.42669000       1.26293000
Si      -1.53310000      -2.66151000       3.73976000
Si      -3.06868000       3.53154000       1.26293000
Si       3.06502000      -3.53515000      -1.25321000
Si      -1.52708000       4.41860000      -1.25321000
Si       1.53805000      -2.65256000      -3.74409000
Si      -1.52622000       2.65491000      -3.74409000
Si       1.53117000      -2.66151000       3.73976000
Si      -1.53741000       2.65342000       3.73976000
Si       4.59372000       0.88675000       1.26293000
Si       4.59113000      -0.89185000      -1.25321000
Si       3.06330000      -0.01075000      -3.74409000
Si       3.06761000      -0.00032000       3.73976000
Si       3.06675000       3.53154000       1.26293000
Si       1.52514000       4.41860000      -1.25321000
Si       1.52428000       2.65491000      -3.74409000
Si       1.53547000       2.65342000       3.73976000
Si      -4.59565000       0.88675000       1.26293000
O        1.89096000       1.08950000       3.59374000
O        3.57975000      -0.03461000       5.26462000
O        2.49349000       3.51066000       2.76813000
O        4.30623000       4.55427000       1.17588000
O        1.90473000       4.00563000       0.25479000
O        2.50726000       5.59191000      -1.75588000
O        1.68610000       3.13795000      -2.21643000
O        4.27352000      -2.47068000      -1.30095000
O       -2.51091000      -1.45093000       3.32696000
O       -3.58169000      -0.03461000       5.26462000
O       -1.89290000       1.08950000       3.59374000
O       -0.00097000      -4.11659000       0.85855000
O       -1.79649000      -3.91980000       2.76813000
O       -4.42522000      -0.35663000       0.25479000
O       -1.79391000      -6.01148000       1.17588000
O       -2.51952000      -3.65740000       0.25479000
O       -6.10024000      -0.62797000      -1.75588000
O       -3.56447000      -0.11213000      -2.21643000
O        6.09831000      -0.62797000      -1.75588000
O        3.56254000      -0.11213000      -2.21643000
O        2.50640000       3.51514000      -4.68764000
O        1.76185000       3.11409000       5.26462000
O       -6.10110000       1.44880000       1.17588000
O       -2.50919000       5.59191000      -1.75588000
O       -1.68804000       3.13795000      -2.21643000
O       -0.00097000       4.93295000      -1.30095000
O        1.79197000      -3.93321000      -4.68764000
O        2.49176000      -1.44198000      -4.21587000
O       -4.27545000      -2.47068000      -1.30095000
O       -3.59202000      -4.97235000      -1.75588000
O       -1.87740000      -3.03422000      -2.21643000
O       -4.30127000       0.40967000      -4.68764000
O       -2.49370000      -1.44198000      -4.21587000
O       -1.90150000       1.09547000      -3.85922000
O       -1.79391000      -3.93321000      -4.68764000
O       -0.00183000      -2.19785000      -3.85922000
O       -4.29095000       0.40072000       2.76813000
O        1.79456000      -3.91980000       2.76813000
O        4.29934000       0.40967000      -4.68764000
O        1.90043000       1.09398000      -3.85922000
O       -2.50833000       3.51514000      -4.68764000
O       -0.00097000       2.87556000      -4.21587000
O        2.50812000      -1.45242000       3.32696000
O        1.81694000      -3.08789000       5.26462000
O       -0.00011000       2.89494000       3.32696000
O       -1.76378000       3.11409000       5.26462000
O        3.56168000       2.05409000       0.85855000
O        4.28901000       0.40072000       2.76813000
O        6.09917000       1.44880000       1.17588000
O        4.42329000      -0.35663000       0.25479000
O        1.79197000      -6.01148000       1.17588000
O        2.51759000      -3.65740000       0.25479000
O       -0.00097000      -2.18741000       3.59374000
O       -1.81887000      -3.08789000       5.26462000
O       -3.56361000       2.05409000       0.85855000
O       -2.49542000       3.51066000       2.76813000
O       -4.30816000       4.55427000       1.17588000
O       -1.90667000       4.00563000       0.25479000
O        3.59008000      -4.97235000      -1.75588000
O        1.87547000      -3.03422000      -2.21643000
H        3.89170000      -0.05549000       6.19341000
H        5.06102000       5.17707000       1.12287000
H        3.10486000       6.30585000      -2.06175000
H       -3.89364000      -0.05549000       6.19341000
H       -1.95588000      -6.97654000       1.12287000
H       -7.01734000      -0.46740000      -2.06175000
H        7.01540000      -0.46740000      -2.06175000
H        3.10389000       4.03848000      -5.26168000
H        1.89974000       3.39469000       6.19341000
H       -7.01786000       1.79107000       1.12287000
H       -3.10680000       6.30585000      -2.06175000
H        1.94645000      -4.71233000      -5.26168000
H       -3.91151000      -5.84686000      -2.06175000
H       -5.05325000       0.66544000      -5.26168000
H       -1.94839000      -4.71233000      -5.26168000
H        5.05131000       0.66544000      -5.26168000
H       -3.10583000       4.03848000      -5.26168000
H        1.99100000      -3.34761000       6.19341000
H       -1.90167000       3.39469000       6.19341000
H        7.01592000       1.79107000       1.12287000
H        1.95394000      -6.97654000       1.12287000
H       -1.99293000      -3.34761000       6.19341000
H       -5.06295000       5.17707000       1.12287000
H        3.90957000      -5.84686000      -2.06175000
