109
Properties=species:S:1:pos:R:3 pbc="F F F"
Na       0.01345300       0.02715700       0.00329700
Si      -2.16643000       0.00300000       4.06459000
Si      -1.49956000       3.75811000      -2.93118000
Al       2.30890000       4.56442000      -0.09622000
Si      -4.55991000      -2.30439000      -0.09622000
Si      -4.50656000       0.00300100       1.96844000
Si       1.50259000      -3.75212000      -2.93118000
Si      -2.30587000      -4.55843000      -0.09622000
Si       0.00152000       2.17095000       4.06459000
Si       1.50259000       3.75811000      -2.93118000
Si      -2.30587000       4.56442000      -0.09622000
Si       0.00152000       4.51107000       1.96844000
Si       0.00152000      -2.16495000       4.06459000
Si       3.75663000       1.50407000      -2.93118000
Si      -1.49956000      -3.75212000      -2.93118000
Si       2.30890000      -4.55843000      -0.09622000
Si       0.00152000      -4.50508000       1.96844000
Si      -3.75360000      -1.49808000      -2.93118000
Si      -4.55991000       2.31039000      -0.09622000
Si      -3.75360000       1.50407000      -2.93118000
Si       4.56294000      -2.30439000      -0.09622000
Si       2.16947000       0.00300000       4.06459000
Si       3.75663000      -1.49808000      -2.93118000
Si       4.56294000       2.31039000      -0.09622000
Si       4.50959000       0.00300000       1.96844000
O       -4.75148000       1.90783000      -4.12817000
O        4.51444000      -1.54658000      -1.51370000
O        4.15918000      -1.30650000       1.10077000
O        6.06402000      -2.83304000       0.15864000
O        3.57475000       0.00300000       3.27996000
O        2.47380000       0.00300000       5.64530000
O        4.75452000      -1.90184000      -4.12817000
O       -1.30798000       4.16066000       1.10077000
O       -6.06098000       0.00299900       2.38652000
O        1.55109000      -4.50993000      -1.51370000
O       -4.15615000       1.31250000       1.10077000
O       -3.57172000       0.00300000       3.27996000
O       -2.47077000       0.00300000       5.64530000
O       -1.54806000       4.51592000      -1.51370000
O       -1.31283000      -1.31135000       3.69232000
O       -1.31283000       1.31735000       3.69232000
O       -1.90332000       4.75600000      -4.12817000
O        0.00152000       3.22946000      -3.18604000
O       -4.75148000      -1.90184000      -4.12817000
O       -3.22495000       0.00300000      -3.18604000
O        4.15918000       1.31250000       1.10077000
O        6.06402000       2.83903000       0.15864000
O        6.06402000       0.00300000       2.38652000
O       -2.83452000       6.06550000       0.15864000
O       -3.57051000       3.57502000      -0.12199000
O        0.00152000       6.06550000       2.38652000
O        0.00152000      -3.57024000       3.27996000
O        0.00152000      -2.46929000       5.64530000
O       -2.48896000       2.49347000      -2.90541000
O        1.55109000       4.51592000      -1.51370000
O        1.31102000       4.16066000       1.10077000
O        2.83755000       6.06550000       0.15864000
O        3.57354000       3.57502000      -0.12199000
O       -4.51141000      -1.54658000      -1.51370000
O       -4.15615000      -1.30650000       1.10077000
O       -6.06098000      -2.83304000       0.15864000
O       -3.57051000      -3.56903000      -0.12199000
O        1.90635000      -4.75000000      -4.12817000
O       -4.51141000       1.55257000      -1.51370000
O       -6.06098000       2.83903000       0.15864000
O        1.31587000      -1.31135000       3.69232000
O        4.51444000       1.55257000      -1.51370000
O        4.75452000       1.90783000      -4.12817000
O        3.22798000       0.00300000      -3.18604000
O       -1.90332000      -4.75000000      -4.12817000
O       -2.48896000      -2.48748000      -2.90541000
O        1.31102000      -4.15467000       1.10077000
O        2.83755000      -6.05950000       0.15864000
O        3.57354000      -3.56903000      -0.12199000
O        0.00152000      -6.05950000       2.38652000
O        0.00152000      -3.22347000      -3.18604000
O        2.49199000      -2.48748000      -2.90541000
O       -1.54806000      -4.50993000      -1.51370000
O       -1.30798000      -4.15467000       1.10077000
O       -2.83452000      -6.05950000       0.15864000
O        0.00152000       3.57623000       3.27996000
O        0.00152000       2.47528000       5.64530000
O        1.31587000       1.31735000       3.69232000
O        1.90635000       4.75600000      -4.12817000
O        2.49199000       2.49347000      -2.90541000
H       -5.35895000       2.15363000      -4.85684000
H        6.97674000      -3.15448000       0.31361000
H        2.65908000       0.00300000       6.60762000
H        5.36199000      -2.14763000      -4.85684000
H       -7.00735000       0.00300000       2.64106000
H       -2.65605000       0.00300000       6.60762000
H       -2.14911000       5.36347000      -4.85684000
H       -5.35895000      -2.14763000      -4.85684000
H        6.97674000       3.16048000       0.31361000
H        7.01038000       0.00300000       2.64106000
H       -3.15596000       6.97822000       0.31361000
H        0.00152000       7.01186000       2.64106000
H        0.00152000      -2.65457000       6.60762000
H        3.15900000       6.97822000       0.31361000
H       -6.97370000      -3.15448000       0.31361000
H        2.15215000      -5.35747000      -4.85684000
H       -6.97370000       3.16048000       0.31361000
H        5.36199000       2.15363000      -4.85684000
H       -2.14911000      -5.35747000      -4.85684000
H        3.15900000      -6.97222000       0.31361000
H        0.00152000      -7.00587000       2.64106000
H       -3.15596000      -6.97222000       0.31361000
H        0.00152000       2.66056000       6.60762000
H        2.15215000       5.36347000      -4.85684000
