145
Properties=species:S:1:pos:R:3 pbc="F F F"
Cs       0.02571900      -0.02785800       0.01069800
Si      -3.34784000       1.55340000       5.53698000
Al       3.75452000      -3.35119000       1.55571000
Si      -3.75099000       3.34803000      -1.55425000
Si       5.53801000       1.55340000       3.35035000
Si      -5.53448000      -1.55656000       3.35035000
Si       3.35138000      -1.55656000      -5.53551000
Si       1.55675000       3.34803000       3.75349000
Si      -1.55321000      -3.35119000      -3.75202000
Si       3.75452000      -3.35119000      -1.55425000
Si       3.35138000       1.55340000      -5.53551000
Si      -3.75099000       3.34803000       1.55571000
Si       5.53801000       1.55340000      -3.34888000
Si      -5.53448000       1.55340000      -3.34888000
Si      -3.34784000      -1.55656000       5.53698000
Si       1.55675000       3.34803000      -3.75202000
Si      -3.75099000      -3.35119000       1.55571000
Si      -1.55321000      -3.35119000       3.75349000
Si       5.53801000      -1.55656000       3.35035000
Si       3.35138000       1.55340000       5.53698000
Si      -5.53448000       1.55340000       3.35035000
Si      -3.34784000      -1.55656000      -5.53551000
Si       1.55675000      -3.35119000       3.75349000
Si       3.75452000       3.34803000      -1.55425000
Si      -1.55321000       3.34803000      -3.75202000
Si      -3.34784000       1.55340000      -5.53551000
Si      -3.75099000      -3.35119000      -1.55425000
Si       5.53801000      -1.55656000      -3.34888000
Si      -5.53448000      -1.55656000      -3.34888000
Si       1.55675000      -3.35119000      -3.75202000
Si       3.35138000      -1.55656000       5.53698000
Si       3.75452000       3.34803000       1.55571000
Si      -1.55321000       3.34803000       3.75349000
O       -6.92597000       2.35969000       3.43952000
O        1.70723000       4.73953000      -4.54716000
O        2.36303000       3.43721000      -2.36053000
O       -3.44631000      -3.07066000       0.00073000
O       -4.54613000      -4.74268000       1.70619000
O       -2.35950000      -3.44037000       2.36200000
O        0.00177000      -3.07066000       3.44881000
O       -1.70369000      -4.74268000       4.54863000
O       -2.14956000      -2.15291000      -4.64377000
O       -4.73934000      -1.70704000       4.74184000
O       -4.64273000      -2.15291000       2.15206000
O       -2.35950000      -3.44037000      -2.36053000
O        4.54966000      -4.74268000      -1.70473000
O        4.64627000      -2.15291000      -2.15060000
O        2.36303000      -3.44037000      -2.36053000
O        4.74287000       1.70388000      -4.74037000
O       -5.83915000      -0.00158000       3.06982000
O       -3.06732000      -0.00158000       5.84166000
O       -4.73934000       1.70388000       4.74184000
O        3.44985000      -3.07066000       0.00073000
O       -2.14956000       2.14975000       4.64523000
O       -3.43702000       2.35969000       6.92847000
O        4.54966000      -4.74268000       1.70619000
O        4.64627000      -2.15291000       2.15206000
O       -6.92597000       2.35969000      -3.43806000
O       -2.14956000      -2.15291000       4.64523000
O        1.70723000      -4.74268000      -4.54716000
O        3.07085000      -0.00158000      -5.84019000
O        4.74287000      -1.70704000      -4.74037000
O        2.15310000      -2.15291000      -4.64377000
O        3.44056000      -2.36284000      -6.92700000
O        0.00177000       3.06751000       3.44881000
O        1.70723000       4.73953000       4.54863000
O        2.15310000       2.14975000       4.64523000
O        2.36303000       3.43721000       2.36200000
O        0.00177000      -3.07066000      -3.44734000
O       -1.70369000      -4.74268000      -4.54716000
O        3.44056000      -2.36284000       6.92847000
O        4.54966000       4.73953000       1.70619000
O       -1.70369000       4.73953000       4.54863000
O        2.36303000      -3.44037000       2.36200000
O       -3.44631000       3.06751000       0.00073000
O       -4.54613000       4.73953000      -1.70473000
O       -4.64273000       2.14975000      -2.15060000
O       -2.35950000       3.43721000      -2.36053000
O        5.84269000      -0.00158000       3.06982000
O        4.74287000       1.70388000       4.74184000
O        4.64627000       2.14975000       2.15206000
O        6.92950000       2.35969000       3.43952000
O       -6.92597000      -2.36284000       3.43952000
O        1.70723000      -4.74268000       4.54863000
O        2.15310000      -2.15291000       4.64523000
O        3.44985000       3.06751000       0.00073000
O       -3.06732000      -0.00158000      -5.84019000
O       -4.73934000      -1.70704000      -4.74037000
O       -3.43702000      -2.36284000      -6.92700000
O        4.74287000      -1.70704000       4.74184000
O        6.92950000      -2.36284000       3.43952000
O        3.07085000      -0.00158000       5.84166000
O        3.44056000       2.35969000       6.92847000
O       -3.43702000      -2.36284000       6.92847000
O        0.00177000       3.06751000      -3.44734000
O        2.15310000       2.14975000      -4.64377000
O        3.44056000       2.35969000      -6.92700000
O       -4.54613000       4.73953000       1.70619000
O       -4.64273000       2.14975000       2.15206000
O       -2.35950000       3.43721000       2.36200000
O        5.84269000      -0.00158000      -3.06835000
O        4.64627000       2.14975000      -2.15060000
O        6.92950000       2.35969000      -3.43806000
O       -5.83915000      -0.00158000      -3.06835000
O       -4.73934000       1.70388000      -4.74037000
O        4.54966000       4.73953000      -1.70473000
O       -1.70369000       4.73953000      -4.54716000
O       -2.14956000       2.14975000      -4.64377000
O       -3.43702000       2.35969000      -6.92700000
O       -4.54613000      -4.74268000      -1.70473000
O       -4.64273000      -2.15291000      -2.15060000
O        6.92950000      -2.36284000      -3.43806000
O       -6.92597000      -2.36284000      -3.43806000
H       -7.77260000       2.85026000       3.49378000
H        1.79884000       5.58668000      -5.03125000
H       -5.03021000      -5.58984000       1.79781000
H       -1.79531000      -5.58984000       5.03271000
H        5.03375000      -5.58984000      -1.79634000
H       -3.49128000       2.85026000       7.77510000
H        5.03375000      -5.58984000       1.79781000
H       -7.77260000       2.85026000      -3.49231000
H        1.79884000      -5.58984000      -5.03125000
H        3.49481000      -2.85342000      -7.77364000
H        1.79884000       5.58668000       5.03271000
H       -1.79531000      -5.58984000      -5.03125000
H        3.49481000      -2.85342000       7.77510000
H        5.03375000       5.58668000       1.79781000
H       -1.79531000       5.58668000       5.03271000
H       -5.03021000       5.58668000      -1.79634000
H        7.77614000       2.85026000       3.49378000
H       -7.77260000      -2.85342000       3.49378000
H        1.79884000      -5.58984000       5.03271000
H       -3.49128000      -2.85342000      -7.77364000
H        7.77614000      -2.85342000       3.49378000
H        3.49481000       2.85026000       7.77510000
H       -3.49128000      -2.85342000       7.77510000
H        3.49481000       2.85026000      -7.77364000
H       -5.03021000       5.58668000       1.79781000
H        7.77614000       2.85026000      -3.49231000
H        5.03375000       5.58668000      -1.79634000
H       -1.79531000       5.58668000      -5.03125000
H       -3.49128000       2.85026000      -7.77364000
H       -5.03021000      -5.58984000      -1.79634000
H        7.77614000      -2.85342000      -3.49231000
H       -7.77260000      -2.85342000      -3.49231000
