73
Properties=species:S:1:pos:R:3 pbc="F F F"
Sr      -0.00028600      -0.05321100       0.06308300
Si       1.54973000       3.73973000      -1.54001000
Al       3.74261000      -1.55260000       1.54573000
Si      -1.54973000      -3.74548000       1.54573000
Si       1.54973000      -3.74548000       1.54573000
Si       1.54973000       3.73973000       1.54573000
Si      -1.54973000      -3.74548000      -1.54001000
Si       3.74261000      -1.55260000      -1.54001000
Si       1.54973000      -3.74548000      -1.54001000
Si       3.74261000       1.54685000       1.54573000
Si      -3.74260000       1.54685000      -1.54001000
Si       3.74261000       1.54685000      -1.54001000
Si      -1.54973000       3.73973000      -1.54001000
Si      -3.74260000       1.54685000       1.54573000
Al      -3.74260000      -1.55260000       1.54573000
Si      -1.54973000       3.73973000       1.54573000
Si      -3.74260000      -1.55260000      -1.54001000
O        4.93923000       2.06390000      -2.48564000
O       -2.41847000      -2.42134000      -1.82868000
O        0.00000000      -3.44562000      -1.85456000
O        2.06677000       4.93636000       2.49136000
O        2.41847000       2.41560000      -1.82868000
O        1.71367000       4.16710000       0.00286000
O        2.41847000      -2.42134000       1.83440000
O        0.00000000       3.43987000      -1.85456000
O        2.06677000       4.93636000      -2.48564000
O        4.16997000      -1.71654000       0.00286000
O        3.44275000      -0.00287000       1.86028000
O       -1.71367000       4.16710000       0.00286000
O       -2.06677000       4.93636000      -2.48564000
O       -2.41847000       2.41560000       1.83440000
O       -3.44275000      -0.00287000       1.86028000
O       -4.93923000       2.06390000       2.49136000
O        4.93923000      -2.06964000       2.49136000
O       -2.41847000      -2.42134000       1.83440000
O       -1.71367000      -4.17284000       0.00286000
O        0.00000000      -3.44562000       1.86028000
O       -2.06677000      -4.94210000       2.49136000
O        1.71367000      -4.17284000       0.00286000
O        2.06677000      -4.94210000       2.49136000
O        2.41847000       2.41560000       1.83440000
O        0.00000000       3.43987000       1.86028000
O       -2.06677000      -4.94210000      -2.48564000
O       -4.16997000      -1.71654000       0.00286000
O       -4.93923000      -2.06964000       2.49136000
O       -2.06677000       4.93636000       2.49136000
O       -4.93923000      -2.06964000      -2.48564000
O        2.41847000      -2.42134000      -1.82868000
O        3.44275000      -0.00287000      -1.85456000
O        4.93923000      -2.06964000      -2.48564000
O        2.06677000      -4.94210000      -2.48564000
O        4.16997000       1.71079000       0.00286000
O        4.93923000       2.06390000       2.49136000
O       -2.41847000       2.41560000      -1.82868000
O       -4.16997000       1.71079000       0.00286000
O       -3.44275000      -0.00287000      -1.85456000
O       -4.93923000       2.06390000      -2.48564000
H        5.66742000       2.37854000      -3.06109000
H        2.38141000       5.66455000       3.06681000
H        2.38141000       5.66455000      -3.06109000
H       -2.38141000       5.66455000      -3.06109000
H       -5.66742000       2.37854000       3.06681000
H        5.66742000      -2.38428000       3.06681000
H       -2.38141000      -5.67029000       3.06681000
H        2.38141000      -5.67029000       3.06681000
H       -2.38141000      -5.67029000      -3.06109000
H       -5.66742000      -2.38428000       3.06681000
H       -2.38141000       5.66455000       3.06681000
H       -5.66742000      -2.38428000      -3.06109000
H        5.66742000      -2.38428000      -3.06109000
H        2.38141000      -5.67029000      -3.06109000
H        5.66742000       2.37854000       3.06681000
H       -5.66742000       2.37854000      -3.06109000
