145
Properties=species:S:1:pos:R:3 pbc="F F F"
Sr      -0.02619300       0.00040300       0.02606400
Si      -3.35067000       1.55498000       5.53730000
Si       3.75170000      -3.34961000       1.55604000
Al      -3.75381000       3.34961000      -1.55392000
Si       5.53519000       1.55498000       3.35067000
Si      -5.53730000      -1.55498000       3.35067000
Si       3.34856000      -1.55498000      -5.53519000
Si       1.55392000       3.34961000       3.75381000
Si      -1.55604000      -3.34961000      -3.75170000
Si       3.75170000      -3.34961000      -1.55392000
Si       3.34856000       1.55498000      -5.53519000
Si      -3.75381000       3.34961000       1.55604000
Si       5.53519000       1.55498000      -3.34856000
Si      -5.53730000       1.55498000      -3.34856000
Si      -3.35067000      -1.55498000       5.53730000
Si       1.55392000       3.34961000      -3.75170000
Si      -3.75381000      -3.34961000       1.55604000
Si      -1.55604000      -3.34961000       3.75381000
Si       5.53519000      -1.55498000       3.35067000
Si       3.34856000       1.55498000       5.53730000
Si      -5.53730000       1.55498000       3.35067000
Si      -3.35067000      -1.55498000      -5.53519000
Al       1.55392000      -3.34961000       3.75381000
Si       3.75170000       3.34961000      -1.55392000
Si      -1.55604000       3.34961000      -3.75170000
Si      -3.35067000       1.55498000      -5.53519000
Si      -3.75381000      -3.34961000      -1.55392000
Si       5.53519000      -1.55498000      -3.34856000
Si      -5.53730000      -1.55498000      -3.34856000
Si       1.55392000      -3.34961000      -3.75170000
Si       3.34856000      -1.55498000       5.53730000
Si       3.75170000       3.34961000       1.55604000
Si      -1.55604000       3.34961000       3.75381000
O       -6.92879000       2.36126000       3.43984000
O        1.70440000       4.74111000      -4.54684000
O        2.36021000       3.43879000      -2.36021000
O       -3.44913000      -3.06909000       0.00106000
O       -4.54895000      -4.74111000       1.70652000
O       -2.36232000      -3.43879000       2.36232000
O       -0.00106000      -3.06909000       3.44913000
O       -1.70652000      -4.74111000       4.54895000
O       -2.15239000      -2.15133000      -4.64344000
O       -4.74216000      -1.70546000       4.74216000
O       -4.64556000      -2.15133000       2.15239000
O       -2.36232000      -3.43879000      -2.36021000
O        4.54684000      -4.74111000      -1.70440000
O        4.64344000      -2.15133000      -2.15028000
O        2.36021000      -3.43879000      -2.36021000
O        4.74005000       1.70546000      -4.74005000
O       -5.84198000       0.00000000       3.07014000
O       -3.07014000       0.00000000       5.84198000
O       -4.74216000       1.70546000       4.74216000
O        3.44702000      -3.06909000       0.00106000
O       -2.15239000       2.15133000       4.64556000
O       -3.43984000       2.36126000       6.92879000
O        4.54684000      -4.74111000       1.70652000
O        4.64344000      -2.15133000       2.15239000
O       -6.92879000       2.36126000      -3.43773000
O       -2.15239000      -2.15133000       4.64556000
O        1.70440000      -4.74111000      -4.54684000
O        3.06803000       0.00000000      -5.83987000
O        4.74005000      -1.70546000      -4.74005000
O        2.15028000      -2.15133000      -4.64344000
O        3.43773000      -2.36126000      -6.92668000
O       -0.00106000       3.06909000       3.44913000
O        1.70440000       4.74111000       4.54895000
O        2.15028000       2.15133000       4.64556000
O        2.36021000       3.43879000       2.36232000
O       -0.00106000      -3.06909000      -3.44702000
O       -1.70652000      -4.74111000      -4.54684000
O        3.43773000      -2.36126000       6.92879000
O        4.54684000       4.74111000       1.70652000
O       -1.70652000       4.74111000       4.54895000
O        2.36021000      -3.43879000       2.36232000
O       -3.44913000       3.06908900       0.00106000
O       -4.54895000       4.74111000      -1.70440000
O       -4.64556000       2.15133000      -2.15028000
O       -2.36232000       3.43879000      -2.36021000
O        5.83987000       0.00000000       3.07014000
O        4.74005000       1.70546000       4.74216000
O        4.64344000       2.15133000       2.15239000
O        6.92668000       2.36126000       3.43984000
O       -6.92879000      -2.36126000       3.43984000
O        1.70440000      -4.74111000       4.54895000
O        2.15028000      -2.15133000       4.64556000
O        3.44702000       3.06909000       0.00106000
O       -3.07014000       0.00000000      -5.83987000
O       -4.74216000      -1.70546000      -4.74005000
O       -3.43984000      -2.36126000      -6.92668000
O        4.74005000      -1.70546000       4.74216000
O        6.92668000      -2.36126000       3.43984000
O        3.06803000       0.00000000       5.84198000
O        3.43773000       2.36126000       6.92879000
O       -3.43984000      -2.36126000       6.92879000
O       -0.00106000       3.06909000      -3.44702000
O        2.15028000       2.15133000      -4.64344000
O        3.43773000       2.36126000      -6.92668000
O       -4.54895000       4.74111000       1.70652000
O       -4.64556000       2.15133000       2.15239000
O       -2.36232000       3.43879000       2.36232000
O        5.83987000       0.00000000      -3.06803000
O        4.64344000       2.15133000      -2.15028000
O        6.92668000       2.36126000      -3.43773000
O       -5.84198000       0.00000000      -3.06803000
O       -4.74216000       1.70546000      -4.74005000
O        4.54684000       4.74111000      -1.70440000
O       -1.70652000       4.74111000      -4.54684000
O       -2.15239000       2.15133000      -4.64344000
O       -3.43984000       2.36126000      -6.92668000
O       -4.54895000      -4.74111000      -1.70440000
O       -4.64556000      -2.15133000      -2.15028000
O        6.92668000      -2.36126000      -3.43773000
O       -6.92879000      -2.36126000      -3.43773000
H       -7.77543000       2.85184000       3.49410000
H        1.79602000       5.58826000      -5.03092000
H       -5.03304000      -5.58826000       1.79813000
H       -1.79813000      -5.58826000       5.03304000
H        5.03092000      -5.58826000      -1.79602000
H       -3.49410000       2.85184000       7.77543000
H        5.03092000      -5.58826000       1.79813000
H       -7.77543000       2.85184000      -3.49199000
H        1.79602000      -5.58826000      -5.03092000
H        3.49199000      -2.85184000      -7.77332000
H        1.79602000       5.58826000       5.03304000
H       -1.79813000      -5.58826000      -5.03092000
H        3.49199000      -2.85184000       7.77543000
H        5.03092000       5.58826000       1.79813000
H       -1.79813000       5.58826000       5.03304000
H       -5.03304000       5.58826000      -1.79602000
H        7.77332000       2.85184000       3.49410000
H       -7.77543000      -2.85184000       3.49410000
H        1.79602000      -5.58826000       5.03304000
H       -3.49410000      -2.85184000      -7.77332000
H        7.77332000      -2.85184000       3.49410000
H        3.49199000       2.85184000       7.77543000
H       -3.49410000      -2.85184000       7.77543000
H        3.49199000       2.85184000      -7.77332000
H       -5.03304000       5.58826000       1.79813000
H        7.77332000       2.85184000      -3.49199000
H        5.03092000       5.58826000      -1.79602000
H       -1.79813000       5.58826000      -5.03092000
H       -3.49410000       2.85184000      -7.77332000
H       -5.03304000      -5.58826000      -1.79602000
H        7.77332000      -2.85184000      -3.49199000
H       -7.77543000      -2.85184000      -3.49199000
