145
Properties=species:S:1:pos:R:3 pbc="F F F"
Sr       0.00774700      -0.02594100       0.03096400
Si      -3.35047000       1.55412000       5.53860000
Al       3.75190000      -3.35048000       1.55734000
Si      -3.75361000       3.34875000      -1.55262000
Si       5.53539000       1.55412000       3.35197000
Si      -5.53710000      -1.55584000       3.35197000
Si       3.34876000      -1.55584000      -5.53389000
Si       1.55412000       3.34875000       3.75511000
Si      -1.55584000      -3.35048000      -3.75040000
Si       3.75190000      -3.35048000      -1.55262000
Si       3.34876000       1.55412000      -5.53389000
Si      -3.75361000       3.34875000       1.55734000
Si       5.53539000       1.55412000      -3.34726000
Si      -5.53710000       1.55412000      -3.34726000
Si      -3.35047000      -1.55584000       5.53860000
Si       1.55412000       3.34875000      -3.75040000
Si      -3.75361000      -3.35048000       1.55734000
Si      -1.55584000      -3.35048000       3.75511000
Si       5.53539000      -1.55584000       3.35197000
Si       3.34876000       1.55412000       5.53860000
Al      -5.53710000       1.55412000       3.35197000
Si      -3.35047000      -1.55584000      -5.53389000
Si       1.55412000      -3.35048000       3.75511000
Si       3.75190000       3.34875000      -1.55262000
Si      -1.55584000       3.34875000      -3.75040000
Si      -3.35047000       1.55412000      -5.53389000
Si      -3.75361000      -3.35048000      -1.55262000
Si       5.53539000      -1.55584000      -3.34726000
Si      -5.53710000      -1.55584000      -3.34726000
Si       1.55412000      -3.35048000      -3.75040000
Si       3.34876000      -1.55584000       5.53860000
Si       3.75190000       3.34875000       1.55734000
Si      -1.55584000       3.34875000       3.75511000
O       -6.92859000       2.36040000       3.44115000
O        1.70460000       4.74024000      -4.54554000
O        2.36041000       3.43793000      -2.35891000
O       -3.44893000      -3.06995000       0.00236000
O       -4.54875000      -4.74197000       1.70782000
O       -2.36212000      -3.43965000       2.36362000
O       -0.00086000      -3.06995000       3.45043000
O       -1.70632000      -4.74197000       4.55025000
O       -2.15219000      -2.15219000      -4.64214000
O       -4.74196000      -1.70632000       4.74346000
O       -4.64536000      -2.15219000       2.15369000
O       -2.36212000      -3.43965000      -2.35891000
O        4.54704000      -4.74197000      -1.70310000
O        4.64364000      -2.15219000      -2.14897000
O        2.36041000      -3.43965000      -2.35891000
O        4.74025000       1.70460000      -4.73875000
O       -5.84178000      -0.00086000       3.07144000
O       -3.06994000      -0.00086000       5.84328000
O       -4.74196000       1.70460000       4.74346000
O        3.44722000      -3.06995000       0.00236000
O       -2.15219000       2.15047000       4.64686000
O       -3.43965000       2.36040000       6.93009000
O        4.54704000      -4.74197000       1.70782000
O        4.64364000      -2.15219000       2.15369000
O       -6.92859000       2.36040000      -3.43643000
O       -2.15219000      -2.15219000       4.64686000
O        1.70460000      -4.74197000      -4.54554000
O        3.06823000      -0.00086000      -5.83857000
O        4.74025000      -1.70632000      -4.73875000
O        2.15047000      -2.15219000      -4.64214000
O        3.43793000      -2.36213000      -6.92538000
O       -0.00086000       3.06822000       3.45043000
O        1.70460000       4.74024000       4.55025000
O        2.15047000       2.15047000       4.64686000
O        2.36041000       3.43793000       2.36362000
O       -0.00086000      -3.06995000      -3.44572000
O       -1.70632000      -4.74197000      -4.54554000
O        3.43793000      -2.36213000       6.93009000
O        4.54704000       4.74024000       1.70782000
O       -1.70632000       4.74024000       4.55025000
O        2.36041000      -3.43965000       2.36362000
O       -3.44893000       3.06822000       0.00236000
O       -4.54875000       4.74024000      -1.70310000
O       -4.64536000       2.15047000      -2.14897000
O       -2.36212000       3.43793000      -2.35891000
O        5.84007000      -0.00086000       3.07144000
O        4.74025000       1.70460000       4.74346000
O        4.64364000       2.15047000       2.15369000
O        6.92688000       2.36040000       3.44115000
O       -6.92859000      -2.36213000       3.44115000
O        1.70460000      -4.74197000       4.55025000
O        2.15047000      -2.15219000       4.64686000
O        3.44722000       3.06822000       0.00236000
O       -3.06994000      -0.00086000      -5.83857000
O       -4.74196000      -1.70632000      -4.73875000
O       -3.43965000      -2.36213000      -6.92538000
O        4.74025000      -1.70632000       4.74346000
O        6.92688000      -2.36213000       3.44115000
O        3.06823000      -0.00086000       5.84328000
O        3.43793000       2.36040000       6.93009000
O       -3.43965000      -2.36213000       6.93009000
O       -0.00086000       3.06822000      -3.44572000
O        2.15047000       2.15047000      -4.64214000
O        3.43793000       2.36040000      -6.92538000
O       -4.54875000       4.74024000       1.70782000
O       -4.64536000       2.15047000       2.15369000
O       -2.36212000       3.43793000       2.36362000
O        5.84007000      -0.00086000      -3.06673000
O        4.64364000       2.15047000      -2.14897000
O        6.92688000       2.36040000      -3.43643000
O       -5.84178000      -0.00086000      -3.06673000
O       -4.74196000       1.70460000      -4.73875000
O        4.54704000       4.74024000      -1.70310000
O       -1.70632000       4.74024000      -4.54554000
O       -2.15219000       2.15047000      -4.64214000
O       -3.43965000       2.36040000      -6.92538000
O       -4.54875000      -4.74197000      -1.70310000
O       -4.64536000      -2.15219000      -2.14897000
O        6.92688000      -2.36213000      -3.43643000
O       -6.92859000      -2.36213000      -3.43643000
H       -7.77523000       2.85098000       3.49540000
H        1.79622000       5.58740000      -5.02962000
H       -5.03284000      -5.58912000       1.79943000
H       -1.79793000      -5.58912000       5.03434000
H        5.03112000      -5.58912000      -1.79472000
H       -3.49390000       2.85098000       7.77673000
H        5.03112000      -5.58912000       1.79943000
H       -7.77523000       2.85098000      -3.49069000
H        1.79622000      -5.58912000      -5.02962000
H        3.49219000      -2.85270000      -7.77201000
H        1.79622000       5.58740000       5.03434000
H       -1.79793000      -5.58912000      -5.02962000
H        3.49219000      -2.85270000       7.77673000
H        5.03112000       5.58740000       1.79943000
H       -1.79793000       5.58740000       5.03434000
H       -5.03284000       5.58740000      -1.79472000
H        7.77351000       2.85098000       3.49540000
H       -7.77523000      -2.85270000       3.49540000
H        1.79622000      -5.58912000       5.03434000
H       -3.49390000      -2.85270000      -7.77201000
H        7.77351000      -2.85270000       3.49540000
H        3.49219000       2.85098000       7.77673000
H       -3.49390000      -2.85270000       7.77673000
H        3.49219000       2.85098000      -7.77201000
H       -5.03284000       5.58740000       1.79943000
H        7.77351000       2.85098000      -3.49069000
H        5.03112000       5.58740000      -1.79472000
H       -1.79793000       5.58740000      -5.02962000
H       -3.49390000       2.85098000      -7.77201000
H       -5.03284000      -5.58912000      -1.79472000
H        7.77351000      -2.85270000      -3.49069000
H       -7.77523000      -2.85270000      -3.49069000
