109
Properties=species:S:1:pos:R:3 pbc="F F F"
Sr      -0.02593500      -0.02633200      -0.01313900
Si      -2.17179000      -0.00384000       4.06267000
Si      -1.50491000       3.75127000      -2.93310000
Si       2.30355000       4.55759000      -0.09814000
Al      -4.56526000      -2.31123000      -0.09814000
Si      -4.51191000      -0.00383900       1.96652000
Si       1.49724000      -3.75895000      -2.93310000
Si      -2.31123000      -4.56526000      -0.09814000
Si      -0.00384000       2.16411000       4.06267000
Si       1.49724000       3.75127000      -2.93310000
Si      -2.31123000       4.55759000      -0.09814000
Si      -0.00384000       4.50424000       1.96652000
Si      -0.00384000      -2.17179000       4.06267000
Si       3.75127000       1.49724000      -2.93310000
Al      -1.50491000      -3.75895000      -2.93310000
Si       2.30355000      -4.56526000      -0.09814000
Si      -0.00384000      -4.51191000       1.96652000
Si      -3.75895000      -1.50491000      -2.93310000
Si      -4.56526000       2.30355000      -0.09814000
Si      -3.75895000       1.49724000      -2.93310000
Si       4.55759000      -2.31123000      -0.09814000
Si       2.16411000      -0.00384000       4.06267000
Si       3.75127000      -1.50491000      -2.93310000
Si       4.55759000       2.30355000      -0.09814000
Si       4.50424000      -0.00384000       1.96652000
O       -4.75684000       1.90100000      -4.13009000
O        4.50909000      -1.55341000      -1.51562000
O        4.15382000      -1.31334000       1.09885000
O        6.05866000      -2.83988000       0.15672000
O        3.56940000      -0.00384000       3.27805000
O        2.46845000      -0.00384000       5.64338000
O        4.74916000      -1.90868000      -4.13009000
O       -1.31334000       4.15382000       1.09885000
O       -6.06634000      -0.00384000       2.38460000
O        1.54574000      -4.51676000      -1.51562000
O       -4.16150000       1.30566000       1.09885000
O       -3.57708000      -0.00384000       3.27805000
O       -2.47613000      -0.00384000       5.64338000
O       -1.55341000       4.50909000      -1.51562000
O       -1.31819000      -1.31819000       3.69040000
O       -1.31819000       1.31051000       3.69040000
O       -1.90868000       4.74916000      -4.13009000
O       -0.00384000       3.22262000      -3.18796000
O       -4.75684000      -1.90868000      -4.13009000
O       -3.23030000      -0.00384000      -3.18796000
O        4.15382000       1.30566000       1.09885000
O        6.05866000       2.83220000       0.15672000
O        6.05866000      -0.00384000       2.38460000
O       -2.83988000       6.05866000       0.15672000
O       -3.57586000       3.56819000      -0.12391000
O       -0.00384000       6.05866000       2.38460000
O       -0.00384000      -3.57708000       3.27805000
O       -0.00384000      -2.47613000       5.64338000
O       -2.49431000       2.48664000      -2.90733000
O        1.54574000       4.50909000      -1.51562000
O        1.30566000       4.15382000       1.09885000
O        2.83220000       6.05866000       0.15672000
O        3.56819000       3.56819000      -0.12391000
O       -4.51676000      -1.55341000      -1.51562000
O       -4.16150000      -1.31334000       1.09885000
O       -6.06634000      -2.83988000       0.15672000
O       -3.57586000      -3.57586000      -0.12391000
O        1.90100000      -4.75684000      -4.13009000
O       -4.51676000       1.54574000      -1.51562000
O       -6.06634000       2.83220000       0.15672000
O        1.31051000      -1.31819000       3.69040000
O        4.50909000       1.54574000      -1.51562000
O        4.74916000       1.90100000      -4.13009000
O        3.22262000      -0.00384000      -3.18796000
O       -1.90868000      -4.75684000      -4.13009000
O       -2.49431000      -2.49431000      -2.90733000
O        1.30566000      -4.16150000       1.09885000
O        2.83220000      -6.06634000       0.15672000
O        3.56819000      -3.57586000      -0.12391000
O       -0.00384000      -6.06634000       2.38460000
O       -0.00384000      -3.23030000      -3.18796000
O        2.48664000      -2.49431000      -2.90733000
O       -1.55341000      -4.51676000      -1.51562000
O       -1.31334000      -4.16150000       1.09885000
O       -2.83988000      -6.06634000       0.15672000
O       -0.00384000       3.56940000       3.27805000
O       -0.00384000       2.46845000       5.64338000
O        1.31051000       1.31051000       3.69040000
O        1.90100000       4.74916000      -4.13009000
O        2.48664000       2.48664000      -2.90733000
H       -5.36431000       2.14679000      -4.85876000
H        6.97138000      -3.16132000       0.31169000
H        2.65373000      -0.00384000       6.60571000
H        5.35663000      -2.15447000      -4.85876000
H       -7.01271000      -0.00384000       2.63914000
H       -2.66141000      -0.00384000       6.60571000
H       -2.15447000       5.35663000      -4.85876000
H       -5.36431000      -2.15447000      -4.85876000
H        6.97138000       3.15364000       0.31169000
H        7.00503000      -0.00384000       2.63914000
H       -3.16132000       6.97138000       0.31169000
H       -0.00384000       7.00503000       2.63914000
H       -0.00384000      -2.66141000       6.60571000
H        3.15364000       6.97138000       0.31169000
H       -6.97906000      -3.16132000       0.31169000
H        2.14679000      -5.36431000      -4.85876000
H       -6.97906000       3.15364000       0.31169000
H        5.35663000       2.14679000      -4.85876000
H       -2.15447000      -5.36431000      -4.85876000
H        3.15364000      -6.97906000       0.31169000
H       -0.00384000      -7.01271000       2.63914000
H       -3.16132000      -6.97906000       0.31169000
H       -0.00384000       2.65373000       6.60571000
H        2.14679000       5.35663000      -4.85876000
