145
Properties=species:S:1:pos:R:3 pbc="F F F"
Sr       0.00023300      -0.00049900       0.04632000
Si      -3.34961000       1.55498000       5.53985000
Si       3.75276000      -3.34961000       1.55859000
Si      -3.75276000       3.34961000      -1.55137000
Si       5.53624000       1.55498000       3.35322000
Si      -5.53624000      -1.55498000       3.35322000
Si       3.34961000      -1.55498000      -5.53264000
Al       1.55498000       3.34961000       3.75636000
Si      -1.55498000      -3.34961000      -3.74915000
Si       3.75276000      -3.34961000      -1.55137000
Si       3.34961000       1.55498000      -5.53264000
Si      -3.75276000       3.34961000       1.55859000
Si       5.53624000       1.55498000      -3.34600000
Si      -5.53624000       1.55498000      -3.34600000
Si      -3.34961000      -1.55498000       5.53985000
Si       1.55498000       3.34961000      -3.74915000
Si      -3.75276000      -3.34961000       1.55859000
Al      -1.55498000      -3.34961000       3.75636000
Si       5.53624000      -1.55498000       3.35322000
Si       3.34961000       1.55498000       5.53985000
Si      -5.53624000       1.55498000       3.35322000
Si      -3.34961000      -1.55498000      -5.53264000
Si       1.55498000      -3.34961000       3.75636000
Si       3.75276000       3.34961000      -1.55137000
Si      -1.55498000       3.34961000      -3.74915000
Si      -3.34961000       1.55498000      -5.53264000
Si      -3.75276000      -3.34961000      -1.55137000
Si       5.53624000      -1.55498000      -3.34600000
Si      -5.53624000      -1.55498000      -3.34600000
Si       1.55498000      -3.34961000      -3.74915000
Si       3.34961000      -1.55498000       5.53985000
Si       3.75276000       3.34961000       1.55859000
Si      -1.55498000       3.34961000       3.75636000
O       -6.92774000       2.36126000       3.44240000
O        1.70546000       4.74111000      -4.54429000
O        2.36126000       3.43879000      -2.35766000
O       -3.44808000      -3.06909000       0.00361000
O       -4.54789000      -4.74111000       1.70907000
O       -2.36126000      -3.43879000       2.36487000
O        0.00000000      -3.06909000       3.45169000
O       -1.70546000      -4.74111000       4.55150000
O       -2.15133000      -2.15133000      -4.64089000
O       -4.74111000      -1.70546000       4.74471000
O       -4.64450000      -2.15133000       2.15494000
O       -2.36126000      -3.43879000      -2.35766000
O        4.54789000      -4.74111000      -1.70185000
O        4.64450000      -2.15133000      -2.14772000
O        2.36126000      -3.43879000      -2.35766000
O        4.74111000       1.70546000      -4.73750000
O       -5.84092000       0.00000000       3.07269000
O       -3.06909000       0.00000000       5.84453000
O       -4.74111000       1.70546000       4.74471000
O        3.44808000      -3.06909000       0.00361000
O       -2.15133000       2.15133000       4.64811000
O       -3.43879000       2.36126000       6.93134000
O        4.54789000      -4.74111000       1.70907000
O        4.64450000      -2.15133000       2.15494000
O       -6.92774000       2.36126000      -3.43518000
O       -2.15133000      -2.15133000       4.64811000
O        1.70546000      -4.74111000      -4.54429000
O        3.06909000       0.00000000      -5.83731000
O        4.74111000      -1.70546000      -4.73750000
O        2.15133000      -2.15133000      -4.64089000
O        3.43879000      -2.36126000      -6.92413000
O        0.00000000       3.06909000       3.45169000
O        1.70546000       4.74111000       4.55150000
O        2.15133000       2.15133000       4.64811000
O        2.36126000       3.43879000       2.36487000
O        0.00000000      -3.06909000      -3.44447000
O       -1.70546000      -4.74111000      -4.54429000
O        3.43879000      -2.36126000       6.93134000
O        4.54789000       4.74111000       1.70907000
O       -1.70546000       4.74111000       4.55150000
O        2.36126000      -3.43879000       2.36487000
O       -3.44808000       3.06909000       0.00361000
O       -4.54789000       4.74111000      -1.70185000
O       -4.64450000       2.15133000      -2.14772000
O       -2.36126000       3.43879000      -2.35766000
O        5.84092000       0.00000000       3.07269000
O        4.74111000       1.70546000       4.74471000
O        4.64450000       2.15133000       2.15494000
O        6.92774000       2.36126000       3.44240000
O       -6.92774000      -2.36126000       3.44240000
O        1.70546000      -4.74111000       4.55150000
O        2.15133000      -2.15133000       4.64811000
O        3.44808000       3.06909000       0.00361000
O       -3.06909000       0.00000000      -5.83731000
O       -4.74111000      -1.70546000      -4.73750000
O       -3.43879000      -2.36126000      -6.92413000
O        4.74111000      -1.70546000       4.74471000
O        6.92774000      -2.36126000       3.44240000
O        3.06909000       0.00000000       5.84453000
O        3.43879000       2.36126000       6.93134000
O       -3.43879000      -2.36126000       6.93134000
O        0.00000000       3.06909000      -3.44447000
O        2.15133000       2.15133000      -4.64089000
O        3.43879000       2.36126000      -6.92413000
O       -4.54789000       4.74111000       1.70907000
O       -4.64450000       2.15133000       2.15494000
O       -2.36126000       3.43879000       2.36487000
O        5.84092000       0.00000000      -3.06548000
O        4.64450000       2.15133000      -2.14772000
O        6.92774000       2.36126000      -3.43518000
O       -5.84092000       0.00000000      -3.06548000
O       -4.74111000       1.70546000      -4.73750000
O        4.54789000       4.74111000      -1.70185000
O       -1.70546000       4.74111000      -4.54429000
O       -2.15133000       2.15133000      -4.64089000
O       -3.43879000       2.36126000      -6.92413000
O       -4.54789000      -4.74111000      -1.70185000
O       -4.64450000      -2.15133000      -2.14772000
O        6.92774000      -2.36126000      -3.43518000
O       -6.92774000      -2.36126000      -3.43518000
H       -7.77437000       2.85184000       3.49665000
H        1.79707000       5.58826000      -5.02837000
H       -5.03198000      -5.58826000       1.80068000
H       -1.79708000      -5.58826000       5.03559000
H        5.03198000      -5.58826000      -1.79347000
H       -3.49305000       2.85184000       7.77798000
H        5.03198000      -5.58826000       1.80068000
H       -7.77437000       2.85184000      -3.48944000
H        1.79707000      -5.58826000      -5.02837000
H        3.49304000      -2.85184000      -7.77076000
H        1.79707000       5.58826000       5.03559000
H       -1.79708000      -5.58826000      -5.02837000
H        3.49304000      -2.85184000       7.77798000
H        5.03198000       5.58826000       1.80068000
H       -1.79708000       5.58826000       5.03559000
H       -5.03198000       5.58826000      -1.79347000
H        7.77437000       2.85184000       3.49665000
H       -7.77437000      -2.85184000       3.49665000
H        1.79707000      -5.58826000       5.03559000
H       -3.49305000      -2.85184000      -7.77076000
H        7.77437000      -2.85184000       3.49665000
H        3.49304000       2.85184000       7.77798000
H       -3.49305000      -2.85184000       7.77798000
H        3.49304000       2.85184000      -7.77076000
H       -5.03198000       5.58826000       1.80068000
H        7.77437000       2.85184000      -3.48944000
H        5.03198000       5.58826000      -1.79347000
H       -1.79708000       5.58826000      -5.02837000
H       -3.49305000       2.85184000      -7.77076000
H       -5.03198000      -5.58826000      -1.79347000
H        7.77437000      -2.85184000      -3.48944000
H       -7.77437000      -2.85184000      -3.48944000
