109
Properties=species:S:1:pos:R:3 pbc="F F F"
K       -0.00253300      -0.00000100       0.00615500
Al      -2.16936000       0.00000000       4.06728000
Si      -1.50249000       3.75511000      -2.92849000
Si       2.30598000       4.56143000      -0.09353000
Si      -4.56284000      -2.30739000      -0.09353000
Si      -4.50949000       0.00000000       1.97113000
Si       1.49966000      -3.75511000      -2.92849000
Si      -2.30880000      -4.56142000      -0.09353000
Si      -0.00141000       2.16795000       4.06728000
Si       1.49966000       3.75511000      -2.92849000
Si      -2.30880000       4.56143000      -0.09353000
Si      -0.00141000       4.50808000       1.97113000
Si      -0.00141000      -2.16795000       4.06728000
Si       3.75370000       1.50108000      -2.92849000
Si      -1.50249000      -3.75511000      -2.92849000
Si       2.30598000      -4.56142000      -0.09353000
Si      -0.00141000      -4.50807000       1.97113000
Si      -3.75652000      -1.50107000      -2.92849000
Si      -4.56284000       2.30739000      -0.09353000
Si      -3.75652000       1.50108000      -2.92849000
Si       4.56001000      -2.30739000      -0.09353000
Si       2.16654000       0.00000000       4.06728000
Si       3.75370000      -1.50107000      -2.92849000
Si       4.56001000       2.30739000      -0.09353000
Si       4.50666000       0.00000000       1.97113000
O       -4.75441000       1.90484000      -4.12548000
O        4.51151000      -1.54957000      -1.51101000
O        4.15625000      -1.30950000       1.10346000
O        6.06109000      -2.83604000       0.16133000
O        3.57183000       0.00000000       3.28266000
O        2.47088000       0.00000000       5.64799000
O        4.75159000      -1.90484000      -4.12548000
O       -1.31091000       4.15766000       1.10346000
O       -6.06391000       0.00000000       2.38921000
O        1.54816000      -4.51292000      -1.51101000
O       -4.15907000       1.30950000       1.10346000
O       -3.57465000       0.00000000       3.28266000
O       -2.47370000       0.00000000       5.64799000
O       -1.55099000       4.51293000      -1.51101000
O       -1.31576000      -1.31435000       3.69502000
O       -1.31576000       1.31435000       3.69502000
O       -1.90625000       4.75300000      -4.12548000
O       -0.00141000       3.22646000      -3.18335000
O       -4.75441000      -1.90484000      -4.12548000
O       -3.22787000       0.00000000      -3.18335000
O        4.15625000       1.30950000       1.10346000
O        6.06109000       2.83604000       0.16133000
O        6.06109000       0.00000000       2.38921000
O       -2.83745000       6.06250000       0.16133000
O       -3.57344000       3.57203000      -0.11930000
O       -0.00141000       6.06250000       2.38921000
O       -0.00141000      -3.57324000       3.28266000
O       -0.00141000      -2.47229000       5.64799000
O       -2.49189000       2.49048000      -2.90272000
O        1.54816000       4.51293000      -1.51101000
O        1.30809000       4.15766000       1.10346000
O        2.83463000       6.06250000       0.16133000
O        3.57061000       3.57203000      -0.11930000
O       -4.51434000      -1.54957000      -1.51101000
O       -4.15907000      -1.30950000       1.10346000
O       -6.06391000      -2.83604000       0.16133000
O       -3.57344000      -3.57202000      -0.11930000
O        1.90343000      -4.75300000      -4.12548000
O       -4.51434000       1.54958000      -1.51101000
O       -6.06391000       2.83604000       0.16133000
O        1.31294000      -1.31435000       3.69502000
O        4.51151000       1.54958000      -1.51101000
O        4.75159000       1.90484000      -4.12548000
O        3.22505000       0.00000000      -3.18335000
O       -1.90625000      -4.75300000      -4.12548000
O       -2.49189000      -2.49047000      -2.90272000
O        1.30809000      -4.15766000       1.10346000
O        2.83463000      -6.06250000       0.16133000
O        3.57061000      -3.57202000      -0.11930000
O       -0.00141000      -6.06250000       2.38921000
O       -0.00141000      -3.22646000      -3.18335000
O        2.48906000      -2.49047000      -2.90272000
O       -1.55099000      -4.51292000      -1.51101000
O       -1.31091000      -4.15766000       1.10346000
O       -2.83745000      -6.06250000       0.16133000
O       -0.00141000       3.57324000       3.28266000
O       -0.00141000       2.47229000       5.64799000
O        1.31294000       1.31435000       3.69502000
O        1.90343000       4.75300000      -4.12548000
O        2.48906000       2.49048000      -2.90272000
H       -5.36188000       2.15063000      -4.85415000
H        6.97381000      -3.15748000       0.31630000
H        2.65616000       0.00000000       6.61032000
H        5.35906000      -2.15063000      -4.85415000
H       -7.01028000       0.00000000       2.64375000
H       -2.65898000       0.00000000       6.61032000
H       -2.15204000       5.36047000      -4.85415000
H       -5.36188000      -2.15063000      -4.85415000
H        6.97381000       3.15748000       0.31630000
H        7.00746000       0.00000000       2.64375000
H       -3.15889000       6.97522000       0.31630000
H       -0.00141000       7.00887000       2.64375000
H       -0.00141000      -2.65757000       6.61032000
H        3.15607000       6.97522000       0.31630000
H       -6.97663000      -3.15748000       0.31630000
H        2.14922000      -5.36047000      -4.85415000
H       -6.97663000       3.15748000       0.31630000
H        5.35906000       2.15063000      -4.85415000
H       -2.15204000      -5.36047000      -4.85415000
H        3.15607000      -6.97522000       0.31630000
H       -0.00141000      -7.00887000       2.64375000
H       -3.15889000      -6.97522000       0.31630000
H       -0.00141000       2.65757000       6.61032000
H        2.14922000       5.36047000      -4.85415000
