73
Properties=species:S:1:pos:R:3 pbc="F F F"
Rb       0.06749600       0.16167500      -0.09519400
Al       1.55116000       3.74608000      -1.54430000
Si       3.74404000      -1.54625000       1.54144000
Si      -1.54829000      -3.73913000       1.54144000
Si       1.55116000      -3.73913000       1.54144000
Si       1.55116000       3.74608000       1.54144000
Si      -1.54829000      -3.73913000      -1.54430000
Si       3.74404000      -1.54625000      -1.54430000
Si       1.55116000      -3.73913000      -1.54430000
Si       3.74404000       1.55320000       1.54144000
Si      -3.74117000       1.55320000      -1.54430000
Si       3.74404000       1.55320000      -1.54430000
Si      -1.54829000       3.74608000      -1.54430000
Si      -3.74117000       1.55320000       1.54144000
Si      -3.74117000      -1.54625000       1.54144000
Si      -1.54829000       3.74608000       1.54144000
Si      -3.74117000      -1.54625000      -1.54430000
O        4.94067000       2.07024000      -2.48993000
O       -2.41703000      -2.41500000      -1.83297000
O        0.00144000      -3.43928000      -1.85885000
O        2.06821000       4.94270000       2.48707000
O        2.41991000       2.42194000      -1.83297000
O        1.71511000       4.17344000      -0.00143000
O        2.41991000      -2.41500000       1.83010000
O        0.00144000       3.44622000      -1.85885000
O        2.06821000       4.94270000      -2.48993000
O        4.17141000      -1.71020000      -0.00143000
O        3.44419000       0.00347000       1.85598000
O       -1.71223000       4.17344000      -0.00143000
O       -2.06533000       4.94270000      -2.48993000
O       -2.41703000       2.42194000       1.83010000
O       -3.44131000       0.00347000       1.85598000
O       -4.93779000       2.07024000       2.48707000
O        4.94067000      -2.06330000       2.48707000
O       -2.41703000      -2.41500000       1.83010000
O       -1.71223000      -4.16650000      -0.00143000
O        0.00144000      -3.43928000       1.85598000
O       -2.06533000      -4.93576000       2.48707000
O        1.71511000      -4.16650000      -0.00143000
O        2.06821000      -4.93576000       2.48707000
O        2.41991000       2.42194000       1.83010000
O        0.00144000       3.44622000       1.85598000
O       -2.06533000      -4.93576000      -2.48993000
O       -4.16853000      -1.71020000      -0.00143000
O       -4.93779000      -2.06330000       2.48707000
O       -2.06533000       4.94270000       2.48707000
O       -4.93779000      -2.06330000      -2.48993000
O        2.41991000      -2.41500000      -1.83297000
O        3.44419000       0.00347000      -1.85885000
O        4.94067000      -2.06330000      -2.48993000
O        2.06821000      -4.93576000      -2.48993000
O        4.17141000       1.71714000      -0.00143000
O        4.94067000       2.07024000       2.48707000
O       -2.41703000       2.42194000      -1.83297000
O       -4.16853000       1.71714000      -0.00143000
O       -3.44131000       0.00347000      -1.85885000
O       -4.93779000       2.07024000      -2.48993000
H        5.66886000       2.38488000      -3.06538000
H        2.38285000       5.67089000       3.06252000
H        2.38285000       5.67089000      -3.06538000
H       -2.37997000       5.67089000      -3.06538000
H       -5.66598000       2.38488000       3.06252000
H        5.66886000      -2.37794000       3.06252000
H       -2.37997000      -5.66395000       3.06252000
H        2.38285000      -5.66395000       3.06252000
H       -2.37997000      -5.66395000      -3.06538000
H       -5.66598000      -2.37794000       3.06252000
H       -2.37997000       5.67089000       3.06252000
H       -5.66598000      -2.37794000      -3.06538000
H        5.66886000      -2.37794000      -3.06538000
H        2.38285000      -5.66395000      -3.06538000
H        5.66886000       2.38488000       3.06252000
H       -5.66598000       2.38488000      -3.06538000
