109
Properties=species:S:1:pos:R:3 pbc="F F F"
Sr      -0.02333500       0.00132500       0.03108800
Si      -2.17084000      -0.00009000       4.06710000
Si      -1.50396000       3.75502000      -2.92867000
Si       2.30450000       4.56134000      -0.09371000
Al      -4.56431000      -2.30748000      -0.09371000
Si      -4.51096000      -0.00009000       1.97095000
Si       1.49819000      -3.75520000      -2.92867000
Si      -2.31028000      -4.56151000      -0.09371000
Al      -0.00289000       2.16786000       4.06710000
Si       1.49819000       3.75502000      -2.92867000
Si      -2.31028000       4.56134000      -0.09371000
Si      -0.00289000       4.50799000       1.97095000
Si      -0.00289000      -2.16804000       4.06710000
Si       3.75222000       1.50099000      -2.92867000
Si      -1.50396000      -3.75520000      -2.92867000
Si       2.30450000      -4.56151000      -0.09371000
Si      -0.00289000      -4.50816000       1.97095000
Si      -3.75800000      -1.50116000      -2.92867000
Si      -4.56431000       2.30730000      -0.09371000
Si      -3.75800000       1.50099000      -2.92867000
Si       4.55854000      -2.30748000      -0.09371000
Si       2.16506000      -0.00009000       4.06710000
Si       3.75222000      -1.50116000      -2.92867000
Si       4.55854000       2.30730000      -0.09371000
Si       4.50519000      -0.00009000       1.97095000
O       -4.75589000       1.90475000      -4.12566000
O        4.51004000      -1.54966000      -1.51119000
O        4.15477000      -1.30959000       1.10328000
O        6.05961000      -2.83613000       0.16115000
O        3.57035000      -0.00009000       3.28247000
O        2.46940000      -0.00009000       5.64781000
O        4.75011000      -1.90493000      -4.12566000
O       -1.31239000       4.15757000       1.10328000
O       -6.06539000      -0.00009000       2.38903000
O        1.54669000      -4.51301000      -1.51119000
O       -4.16055000       1.30941000       1.10328000
O       -3.57613000      -0.00009000       3.28247000
O       -2.47518000      -0.00009000       5.64781000
O       -1.55246000       4.51284000      -1.51119000
O       -1.31724000      -1.31444000       3.69483000
O       -1.31724000       1.31426000       3.69483000
O       -1.90773000       4.75291000      -4.12566000
O       -0.00289000       3.22637000      -3.18353000
O       -4.75589000      -1.90493000      -4.12566000
O       -3.22935000      -0.00009000      -3.18353000
O        4.15477000       1.30941000       1.10328000
O        6.05961000       2.83595000       0.16115000
O        6.05961000      -0.00009000       2.38903000
O       -2.83893000       6.06241000       0.16115000
O       -3.57491000       3.57194000      -0.11948000
O       -0.00289000       6.06241000       2.38903000
O       -0.00289000      -3.57333000       3.28247000
O       -0.00289000      -2.47238000       5.64781000
O       -2.49336000       2.49039000      -2.90290000
O        1.54669000       4.51284000      -1.51119000
O        1.30661000       4.15757000       1.10328000
O        2.83315000       6.06241000       0.16115000
O        3.56914000       3.57194000      -0.11948000
O       -4.51581000      -1.54966000      -1.51119000
O       -4.16055000      -1.30959000       1.10328000
O       -6.06539000      -2.83613000       0.16115000
O       -3.57491000      -3.57211000      -0.11948000
O        1.90195000      -4.75309000      -4.12566000
O       -4.51581000       1.54949000      -1.51119000
O       -6.06539000       2.83595000       0.16115000
O        1.31146000      -1.31444000       3.69483000
O        4.51004000       1.54949000      -1.51119000
O        4.75011000       1.90475000      -4.12566000
O        3.22357000      -0.00009000      -3.18353000
O       -1.90773000      -4.75309000      -4.12566000
O       -2.49336000      -2.49056000      -2.90290000
O        1.30661000      -4.15775000       1.10328000
O        2.83315000      -6.06259000       0.16115000
O        3.56914000      -3.57211000      -0.11948000
O       -0.00289000      -6.06259000       2.38903000
O       -0.00289000      -3.22655000      -3.18353000
O        2.48759000      -2.49056000      -2.90290000
O       -1.55246000      -4.51301000      -1.51119000
O       -1.31239000      -4.15775000       1.10328000
O       -2.83893000      -6.06259000       0.16115000
O       -0.00289000       3.57315000       3.28247000
O       -0.00289000       2.47220000       5.64781000
O        1.31146000       1.31426000       3.69483000
O        1.90195000       4.75291000      -4.12566000
O        2.48759000       2.49039000      -2.90290000
H       -5.36336000       2.15054000      -4.85433000
H        6.97233000      -3.15757000       0.31612000
H        2.65468000      -0.00009000       6.61013000
H        5.35758000      -2.15072000      -4.85433000
H       -7.01176000      -0.00009000       2.64357000
H       -2.66046000      -0.00009000       6.61013000
H       -2.15352000       5.36038000      -4.85433000
H       -5.36336000      -2.15072000      -4.85433000
H        6.97233000       3.15739000       0.31612000
H        7.00598000      -0.00009000       2.64357000
H       -3.16037000       6.97513000       0.31612000
H       -0.00289000       7.00878000       2.64357000
H       -0.00289000      -2.65766000       6.61013000
H        3.15459000       6.97513000       0.31612000
H       -6.97811000      -3.15757000       0.31612000
H        2.14774000      -5.36056000      -4.85433000
H       -6.97811000       3.15739000       0.31612000
H        5.35758000       2.15054000      -4.85433000
H       -2.15352000      -5.36056000      -4.85433000
H        3.15459000      -6.97531000       0.31612000
H       -0.00289000      -7.00896000       2.64357000
H       -3.16037000      -6.97531000       0.31612000
H       -0.00289000       2.65748000       6.61013000
H        2.14774000       5.36038000      -4.85433000
