109
Properties=species:S:1:pos:R:3 pbc="F F F"
Sr      -0.02851100      -0.02830900       0.00078500
Si      -2.17230000      -0.00435000       4.06447000
Si      -1.50542000       3.75076000      -2.93131000
Si       2.30304000       4.55708000      -0.09634000
Al      -4.56577000      -2.31174000      -0.09634000
Si      -4.51242000      -0.00435000       1.96831000
Si       1.49673000      -3.75946000      -2.93131000
Al      -2.31174000      -4.56577000      -0.09634000
Si      -0.00435000       2.16360000       4.06447000
Si       1.49673000       3.75076000      -2.93131000
Si      -2.31174000       4.55708000      -0.09634000
Si      -0.00435100       4.50373000       1.96831000
Si      -0.00435000      -2.17230000       4.06447000
Si       3.75076000       1.49673000      -2.93131000
Si      -1.50542000      -3.75946000      -2.93131000
Si       2.30304000      -4.56577000      -0.09634000
Si      -0.00435000      -4.51242000       1.96831000
Si      -3.75946000      -1.50542000      -2.93131000
Si      -4.56577000       2.30304000      -0.09634000
Si      -3.75946000       1.49673000      -2.93131000
Si       4.55708000      -2.31174000      -0.09634000
Si       2.16360000      -0.00435000       4.06447000
Si       3.75076000      -1.50542000      -2.93131000
Si       4.55708000       2.30304000      -0.09634000
Si       4.50373000      -0.00435000       1.96831000
O       -4.75735000       1.90049000      -4.12829000
O        4.50858000      -1.55392000      -1.51383000
O        4.15331000      -1.31385000       1.10064000
O        6.05815000      -2.84039000       0.15852000
O        3.56889000      -0.00435000       3.27984000
O        2.46794000      -0.00435000       5.64517000
O        4.74865000      -1.90919000      -4.12829000
O       -1.31385000       4.15331000       1.10064000
O       -6.06685000      -0.00435000       2.38640000
O        1.54523000      -4.51727000      -1.51383000
O       -4.16201000       1.30515000       1.10064000
O       -3.57759000      -0.00435000       3.27984000
O       -2.47664000      -0.00435000       5.64517000
O       -1.55392000       4.50858000      -1.51383000
O       -1.31870000      -1.31870000       3.69220000
O       -1.31870000       1.31000000       3.69220000
O       -1.90919000       4.74865000      -4.12829000
O       -0.00435000       3.22211000      -3.18617000
O       -4.75735000      -1.90919000      -4.12829000
O       -3.23081000      -0.00435000      -3.18617000
O        4.15331000       1.30515000       1.10064000
O        6.05815000       2.83169000       0.15852000
O        6.05815000      -0.00435000       2.38640000
O       -2.84039000       6.05815000       0.15852000
O       -3.57637000       3.56768000      -0.12212000
O       -0.00435000       6.05815000       2.38640000
O       -0.00435000      -3.57759000       3.27984000
O       -0.00435000      -2.47664000       5.64517000
O       -2.49482000       2.48613000      -2.90554000
O        1.54523000       4.50858000      -1.51383000
O        1.30515000       4.15331000       1.10064000
O        2.83169000       6.05815000       0.15852000
O        3.56768000       3.56768000      -0.12212000
O       -4.51727000      -1.55392000      -1.51383000
O       -4.16201000      -1.31385000       1.10064000
O       -6.06685000      -2.84039000       0.15852000
O       -3.57637000      -3.57637000      -0.12212000
O        1.90049000      -4.75735000      -4.12829000
O       -4.51727000       1.54523000      -1.51383000
O       -6.06685000       2.83169000       0.15852000
O        1.31000000      -1.31870000       3.69220000
O        4.50858000       1.54523000      -1.51383000
O        4.74865000       1.90049000      -4.12829000
O        3.22211000      -0.00435000      -3.18617000
O       -1.90919000      -4.75735000      -4.12829000
O       -2.49482000      -2.49482000      -2.90554000
O        1.30515000      -4.16201000       1.10064000
O        2.83169000      -6.06685000       0.15852000
O        3.56768000      -3.57637000      -0.12212000
O       -0.00435000      -6.06685000       2.38640000
O       -0.00435000      -3.23081000      -3.18617000
O        2.48613000      -2.49482000      -2.90554000
O       -1.55392000      -4.51727000      -1.51383000
O       -1.31385000      -4.16201000       1.10064000
O       -2.84039000      -6.06685000       0.15852000
O       -0.00435000       3.56889000       3.27984000
O       -0.00435000       2.46794000       5.64517000
O        1.31000000       1.31000000       3.69220000
O        1.90049000       4.74865000      -4.12829000
O        2.48613000       2.48613000      -2.90554000
H       -5.36482000       2.14628000      -4.85697000
H        6.97087000      -3.16183000       0.31348000
H        2.65322000      -0.00435000       6.60750000
H        5.35612000      -2.15498000      -4.85697000
H       -7.01322000      -0.00435000       2.64094000
H       -2.66192000      -0.00435000       6.60750000
H       -2.15498000       5.35612000      -4.85697000
H       -5.36482000      -2.15498000      -4.85697000
H        6.97087000       3.15313000       0.31348000
H        7.00452000      -0.00435000       2.64094000
H       -3.16183000       6.97087000       0.31348000
H       -0.00435000       7.00452000       2.64094000
H       -0.00435000      -2.66192000       6.60750000
H        3.15313000       6.97087000       0.31348000
H       -6.97957000      -3.16183000       0.31348000
H        2.14628000      -5.36482000      -4.85697000
H       -6.97957000       3.15313000       0.31348000
H        5.35612000       2.14628000      -4.85697000
H       -2.15498000      -5.36482000      -4.85697000
H        3.15313000      -6.97957000       0.31348000
H       -0.00435000      -7.01322000       2.64094000
H       -3.16183000      -6.97957000       0.31348000
H       -0.00435000       2.65322000       6.60750000
H        2.14628000       5.35612000      -4.85697000
