109
Properties=species:S:1:pos:R:3 pbc="F F F"
Sr      -0.02167400      -0.01268900      -0.03246200
Si      -1.52988000      -4.42557000       1.25739000
Si      -4.59502000      -0.89073000      -1.25876000
Si      -3.06891000      -3.53403000      -1.25876000
Al      -3.06718000      -0.00963000      -3.74963000
Al      -1.54194000      -2.65144000      -3.74963000
Si      -3.07149000       0.00080000       3.73422000
Si       1.52406000      -4.42557000       1.25739000
Si      -1.53505000      -2.66039000       3.73422000
Si      -3.07063000       3.53266000       1.25739000
Si       3.06308000      -3.53403000      -1.25876000
Si      -1.52902000       4.41972000      -1.25876000
Si       1.53611000      -2.65144000      -3.74963000
Si      -1.52816000       2.65603000      -3.74963000
Si       1.52922000      -2.66039000       3.73422000
Si      -1.53935000       2.65454000       3.73422000
Si       4.59177000       0.88787000       1.25739000
Si       4.58919000      -0.89073000      -1.25876000
Si       3.06136000      -0.00963000      -3.74963000
Si       3.06566000       0.00080000       3.73422000
Si       3.06480000       3.53266000       1.25739000
Si       1.52320000       4.41972000      -1.25876000
Si       1.52233000       2.65603000      -3.74963000
Si       1.53352000       2.65454000       3.73422000
Si      -4.59760000       0.88787000       1.25739000
O        1.88901000       1.09062000       3.58820000
O        3.57781000      -0.03349000       5.25908000
O        2.49154000       3.51178000       2.76259000
O        4.30428000       4.55539000       1.17034000
O        1.90279000       4.00675000       0.24925000
O        2.50531000       5.59303000      -1.76142000
O        1.68416000       3.13907000      -2.22197000
O        4.27157000      -2.46956000      -1.30650000
O       -2.51286000      -1.44981000       3.32142000
O       -3.58363000      -0.03349000       5.25908000
O       -1.89484000       1.09062000       3.58820000
O       -0.00291000      -4.11547000       0.85301000
O       -1.79844000      -3.91868000       2.76259000
O       -4.42717000      -0.35551000       0.24925000
O       -1.79586000      -6.01036000       1.17034000
O       -2.52147000      -3.65628000       0.24925000
O       -6.10219000      -0.62685000      -1.76142000
O       -3.56642000      -0.11101000      -2.22197000
O        6.09636000      -0.62685000      -1.76142000
O        3.56059000      -0.11101000      -2.22197000
O        2.50445000       3.51626000      -4.69319000
O        1.75990000       3.11521000       5.25908000
O       -6.10305000       1.44992000       1.17034000
O       -2.51114000       5.59303000      -1.76142000
O       -1.68998000       3.13907000      -2.22197000
O       -0.00291000       4.93407000      -1.30650000
O        1.79003000      -3.93209000      -4.69319000
O        2.48982000      -1.44086000      -4.22141000
O       -4.27740000      -2.46956000      -1.30650000
O       -3.59396000      -4.97123000      -1.76142000
O       -1.87935000      -3.03310000      -2.22197000
O       -4.30322000       0.41079000      -4.69319000
O       -2.49565000      -1.44086000      -4.22141000
O       -1.90345000       1.09659000      -3.86477000
O       -1.79586000      -3.93209000      -4.69319000
O       -0.00378000      -2.19673000      -3.86477000
O       -4.29289000       0.40184000       2.76259000
O        1.79261000      -3.91868000       2.76259000
O        4.29739000       0.41079000      -4.69319000
O        1.89848000       1.09510000      -3.86477000
O       -2.51028000       3.51626000      -4.69319000
O       -0.00291000       2.87668000      -4.22141000
O        2.50617000      -1.45130000       3.32142000
O        1.81499000      -3.08677000       5.25908000
O       -0.00205000       2.89606000       3.32142000
O       -1.76573000       3.11521000       5.25908000
O        3.55973000       2.05521000       0.85301000
O        4.28706000       0.40184000       2.76259000
O        6.09722000       1.44992000       1.17034000
O        4.42134000      -0.35551000       0.24925000
O        1.79003000      -6.01036000       1.17034000
O        2.51564000      -3.65628000       0.24925000
O       -0.00291000      -2.18629000       3.58820000
O       -1.82082000      -3.08677000       5.25908000
O       -3.56556000       2.05521000       0.85301000
O       -2.49737000       3.51178000       2.76259000
O       -4.31011000       4.55539000       1.17034000
O       -1.90861000       4.00675000       0.24925000
O        3.58813000      -4.97123000      -1.76142000
O        1.87352000      -3.03310000      -2.22197000
H        3.88975000      -0.05437000       6.18787000
H        5.05907000       5.17819000       1.11732000
H        3.10292000       6.30697000      -2.06729000
H       -3.89558000      -0.05437000       6.18787000
H       -1.95782000      -6.97542000       1.11732000
H       -7.01928000      -0.46628000      -2.06729000
H        7.01345000      -0.46628000      -2.06729000
H        3.10194000       4.03960000      -5.26722000
H        1.89779000       3.39581000       6.18787000
H       -7.01981000       1.79219000       1.11732000
H       -3.10874000       6.30697000      -2.06729000
H        1.94451000      -4.71121000      -5.26722000
H       -3.91345000      -5.84574000      -2.06729000
H       -5.05519000       0.66656000      -5.26722000
H       -1.95034000      -4.71121000      -5.26722000
H        5.04937000       0.66656000      -5.26722000
H       -3.10777000       4.03960000      -5.26722000
H        1.98905000      -3.34649000       6.18787000
H       -1.90362000       3.39581000       6.18787000
H        7.01398000       1.79219000       1.11732000
H        1.95199000      -6.97542000       1.11732000
H       -1.99488000      -3.34649000       6.18787000
H       -5.06490000       5.17819000       1.11732000
H        3.90763000      -5.84574000      -2.06729000
