145
Properties=species:S:1:pos:R:3 pbc="F F F"
Na      -0.01887900       0.01183200       0.02929100
Al      -3.35127000       1.55575000       5.53898000
Si       3.75110000      -3.34884000       1.55772000
Si      -3.75441000       3.35038000      -1.55224000
Si       5.53459000       1.55575000       3.35235000
Si      -5.53790000      -1.55421000       3.35235000
Si       3.34796000      -1.55421000      -5.53351000
Si       1.55332000       3.35038000       3.75549000
Si      -1.55664000      -3.34884000      -3.75002000
Si       3.75110000      -3.34884000      -1.55224000
Si       3.34796000       1.55575000      -5.53351000
Si      -3.75441000       3.35038000       1.55772000
Si       5.53459000       1.55575000      -3.34688000
Si      -5.53790000       1.55575000      -3.34688000
Si      -3.35127000      -1.55421000       5.53898000
Si       1.55332000       3.35038000      -3.75002000
Si      -3.75441000      -3.34884000       1.55772000
Si      -1.55664000      -3.34884000       3.75549000
Si       5.53459000      -1.55421000       3.35235000
Si       3.34796000       1.55575000       5.53898000
Si      -5.53790000       1.55575000       3.35235000
Si      -3.35127000      -1.55421000      -5.53351000
Si       1.55332000      -3.34884000       3.75549000
Si       3.75110000       3.35038000      -1.55224000
Si      -1.55664000       3.35038000      -3.75002000
Si      -3.35127000       1.55575000      -5.53351000
Si      -3.75441000      -3.34884000      -1.55224000
Si       5.53459000      -1.55421000      -3.34688000
Si      -5.53790000      -1.55421000      -3.34688000
Si       1.55332000      -3.34884000      -3.75002000
Si       3.34796000      -1.55421000       5.53898000
Si       3.75110000       3.35038000       1.55772000
Si      -1.55664000       3.35038000       3.75549000
O       -6.92939000       2.36203000       3.44153000
O        1.70380000       4.74187000      -4.54516000
O        2.35961000       3.43956000      -2.35853000
O       -3.44973000      -3.06832000       0.00274000
O       -4.54955000      -4.74034000       1.70820000
O       -2.36292000      -3.43802000       2.36400000
O       -0.00166000      -3.06832000       3.45081000
O       -1.70712000      -4.74034000       4.55063000
O       -2.15299000      -2.15056000      -4.64176000
O       -4.74276000      -1.70469000       4.74384000
O       -4.64616000      -2.15056000       2.15407000
O       -2.36292000      -3.43802000      -2.35853000
O        4.54624000      -4.74034000      -1.70272000
O        4.64284000      -2.15056000      -2.14859000
O        2.35961000      -3.43802000      -2.35853000
O        4.73945000       1.70623000      -4.73837000
O       -5.84258000       0.00077000       3.07182000
O       -3.07074000       0.00077000       5.84366000
O       -4.74276000       1.70623000       4.74384000
O        3.44642000      -3.06832000       0.00274000
O       -2.15299000       2.15210000       4.64724000
O       -3.44044000       2.36203000       6.93047000
O        4.54624000      -4.74034000       1.70820000
O        4.64284000      -2.15056000       2.15407000
O       -6.92939000       2.36203000      -3.43605000
O       -2.15299000      -2.15056000       4.64724000
O        1.70380000      -4.74034000      -4.54516000
O        3.06743000       0.00077000      -5.83819000
O        4.73945000      -1.70469000      -4.73837000
O        2.14968000      -2.15056000      -4.64176000
O        3.43713000      -2.36050000      -6.92500000
O       -0.00166000       3.06985000       3.45081000
O        1.70380000       4.74187000       4.55063000
O        2.14968000       2.15210000       4.64724000
O        2.35961000       3.43956000       2.36400000
O       -0.00166000      -3.06832000      -3.44534000
O       -1.70712000      -4.74034000      -4.54516000
O        3.43713000      -2.36050000       6.93047000
O        4.54624000       4.74187000       1.70820000
O       -1.70712000       4.74187000       4.55063000
O        2.35961000      -3.43802000       2.36400000
O       -3.44973000       3.06985000       0.00274000
O       -4.54955000       4.74187000      -1.70272000
O       -4.64616000       2.15210000      -2.14859000
O       -2.36292000       3.43956000      -2.35853000
O        5.83927000       0.00077000       3.07182000
O        4.73945000       1.70623000       4.74384000
O        4.64284000       2.15210000       2.15407000
O        6.92608000       2.36203000       3.44153000
O       -6.92939000      -2.36050000       3.44153000
O        1.70380000      -4.74034000       4.55063000
O        2.14968000      -2.15056000       4.64724000
O        3.44642000       3.06985000       0.00274000
O       -3.07074000       0.00077000      -5.83819000
O       -4.74276000      -1.70469000      -4.73837000
O       -3.44044000      -2.36050000      -6.92500000
O        4.73945000      -1.70469000       4.74384000
O        6.92608000      -2.36050000       3.44153000
O        3.06743000       0.00077000       5.84366000
O        3.43713000       2.36203000       6.93047000
O       -3.44044000      -2.36050000       6.93047000
O       -0.00166000       3.06985000      -3.44534000
O        2.14968000       2.15210000      -4.64176000
O        3.43713000       2.36203000      -6.92500000
O       -4.54955000       4.74187000       1.70820000
O       -4.64616000       2.15210000       2.15407000
O       -2.36292000       3.43956000       2.36400000
O        5.83927000       0.00077000      -3.06635000
O        4.64284000       2.15210000      -2.14859000
O        6.92608000       2.36203000      -3.43605000
O       -5.84258000       0.00077000      -3.06635000
O       -4.74276000       1.70623000      -4.73837000
O        4.54624000       4.74187000      -1.70272000
O       -1.70712000       4.74187000      -4.54516000
O       -2.15299000       2.15210000      -4.64176000
O       -3.44044000       2.36203000      -6.92500000
O       -4.54955000      -4.74034000      -1.70272000
O       -4.64616000      -2.15056000      -2.14859000
O        6.92608000      -2.36050000      -3.43605000
O       -6.92939000      -2.36050000      -3.43605000
H       -7.77603000       2.85261000       3.49578000
H        1.79542000       5.58903000      -5.02924000
H       -5.03364000      -5.58749000       1.79981000
H       -1.79873000      -5.58749000       5.03472000
H        5.03032000      -5.58749000      -1.79434000
H       -3.49470000       2.85261000       7.77711000
H        5.03032000      -5.58749000       1.79981000
H       -7.77603000       2.85261000      -3.49031000
H        1.79542000      -5.58749000      -5.02924000
H        3.49139000      -2.85107000      -7.77163000
H        1.79542000       5.58903000       5.03472000
H       -1.79873000      -5.58749000      -5.02924000
H        3.49139000      -2.85107000       7.77711000
H        5.03032000       5.58903000       1.79981000
H       -1.79873000       5.58903000       5.03472000
H       -5.03364000       5.58903000      -1.79434000
H        7.77272000       2.85261000       3.49578000
H       -7.77603000      -2.85107000       3.49578000
H        1.79542000      -5.58749000       5.03472000
H       -3.49470000      -2.85107000      -7.77163000
H        7.77272000      -2.85107000       3.49578000
H        3.49139000       2.85261000       7.77711000
H       -3.49470000      -2.85107000       7.77711000
H        3.49139000       2.85261000      -7.77163000
H       -5.03364000       5.58903000       1.79981000
H        7.77272000       2.85261000      -3.49031000
H        5.03032000       5.58903000      -1.79434000
H       -1.79873000       5.58903000      -5.02924000
H       -3.49470000       2.85261000      -7.77163000
H       -5.03364000      -5.58749000      -1.79434000
H        7.77272000      -2.85107000      -3.49031000
H       -7.77603000      -2.85107000      -3.49031000
