109
Properties=species:S:1:pos:R:3 pbc="F F F"
Sr      -0.02066600       0.01021700       0.03590500
Si      -2.17080000       0.00137000       4.06841000
Si      -1.50393000       3.75648000      -2.92737000
Si       2.30453000       4.56280000      -0.09240000
Si      -4.56428000      -2.30602000      -0.09240000
Al      -4.51093000       0.00137000       1.97225000
Si       1.49822000      -3.75374000      -2.92737000
Si      -2.31024000      -4.56005000      -0.09240000
Al      -0.00285000       2.16932000       4.06841000
Si       1.49822000       3.75648000      -2.92737000
Si      -2.31024000       4.56280000      -0.09240000
Si      -0.00285000       4.50945000       1.97225000
Si      -0.00285000      -2.16658000       4.06841000
Si       3.75226000       1.50245000      -2.92737000
Si      -1.50393000      -3.75374000      -2.92737000
Si       2.30453000      -4.56005000      -0.09240000
Si      -0.00285000      -4.50670000       1.97225000
Si      -3.75797000      -1.49970000      -2.92737000
Si      -4.56428000       2.30876000      -0.09240000
Si      -3.75797000       1.50245000      -2.92737000
Si       4.55857000      -2.30602000      -0.09240000
Si       2.16510000       0.00137000       4.06841000
Si       3.75226000      -1.49970000      -2.92737000
Si       4.55857000       2.30876000      -0.09240000
Si       4.50522000       0.00137000       1.97225000
O       -4.75585000       1.90621000      -4.12435000
O        4.51007000      -1.54820000      -1.50988000
O        4.15481000      -1.30813000       1.10458000
O        6.05965000      -2.83466000       0.16246000
O        3.57038000       0.00137000       3.28378000
O        2.46943000       0.00137000       5.64912000
O        4.75015000      -1.90346000      -4.12435000
O       -1.31235000       4.15903000       1.10458000
O       -6.06535000       0.00137000       2.39034000
O        1.54672000      -4.51155000      -1.50988000
O       -4.16052000       1.31087000       1.10458000
O       -3.57609000       0.00137000       3.28378000
O       -2.47514000       0.00137000       5.64912000
O       -1.55243000       4.51430000      -1.50988000
O       -1.31720000      -1.31298000       3.69614000
O       -1.31720000       1.31572000       3.69614000
O       -1.90769000       4.75437000      -4.12435000
O       -0.00285000       3.22784000      -3.18223000
O       -4.75585000      -1.90346000      -4.12435000
O       -3.22932000       0.00137000      -3.18223000
O        4.15481000       1.31087000       1.10458000
O        6.05965000       2.83741000       0.16246000
O        6.05965000       0.00137000       2.39034000
O       -2.83889000       6.06387000       0.16246000
O       -3.57488000       3.57340000      -0.11817000
O       -0.00285000       6.06387000       2.39034000
O       -0.00285000      -3.57187000       3.28378000
O       -0.00285000      -2.47092000       5.64912000
O       -2.49333000       2.49185000      -2.90159000
O        1.54672000       4.51430000      -1.50988000
O        1.30665000       4.15903000       1.10458000
O        2.83318000       6.06387000       0.16246000
O        3.56917000       3.57340000      -0.11817000
O       -4.51578000      -1.54820000      -1.50988000
O       -4.16052000      -1.30813000       1.10458000
O       -6.06535000      -2.83466000       0.16246000
O       -3.57488000      -3.57065000      -0.11817000
O        1.90198000      -4.75163000      -4.12435000
O       -4.51578000       1.55095000      -1.50988000
O       -6.06535000       2.83741000       0.16246000
O        1.31150000      -1.31298000       3.69614000
O        4.51007000       1.55095000      -1.50988000
O        4.75015000       1.90621000      -4.12435000
O        3.22361000       0.00137000      -3.18223000
O       -1.90769000      -4.75163000      -4.12435000
O       -2.49333000      -2.48910000      -2.90159000
O        1.30665000      -4.15629000       1.10458000
O        2.83318000      -6.06113000       0.16246000
O        3.56917000      -3.57065000      -0.11817000
O       -0.00285000      -6.06113000       2.39034000
O       -0.00285000      -3.22509000      -3.18223000
O        2.48762000      -2.48910000      -2.90159000
O       -1.55243000      -4.51155000      -1.50988000
O       -1.31235000      -4.15629000       1.10458000
O       -2.83889000      -6.06113000       0.16246000
O       -0.00285000       3.57461000       3.28378000
O       -0.00285000       2.47366000       5.64912000
O        1.31150000       1.31572000       3.69614000
O        1.90198000       4.75437000      -4.12435000
O        2.48762000       2.49185000      -2.90159000
H       -5.36333000       2.15200000      -4.85302000
H        6.97237000      -3.15611000       0.31742000
H        2.65471000       0.00137000       6.61144000
H        5.35762000      -2.14926000      -4.85302000
H       -7.01172000       0.00137000       2.64488000
H       -2.66042000       0.00137000       6.61144000
H       -2.15349000       5.36184000      -4.85302000
H       -5.36333000      -2.14926000      -4.85302000
H        6.97237000       3.15885000       0.31742000
H        7.00601000       0.00137000       2.64488000
H       -3.16033000       6.97659000       0.31742000
H       -0.00285000       7.01024000       2.64488000
H       -0.00285000      -2.65619000       6.61144000
H        3.15463000       6.97659000       0.31742000
H       -6.97808000      -3.15611000       0.31742000
H        2.14778000      -5.35910000      -4.85302000
H       -6.97808000       3.15885000       0.31742000
H        5.35762000       2.15200000      -4.85302000
H       -2.15349000      -5.35910000      -4.85302000
H        3.15463000      -6.97385000       0.31742000
H       -0.00285000      -7.00749000       2.64488000
H       -3.16033000      -6.97385000       0.31742000
H       -0.00285000       2.65894000       6.61144000
H        2.14778000       5.36184000      -4.85302000
