109
Properties=species:S:1:pos:R:3 pbc="F F F"
Sr      -0.01997100      -0.03174000       0.01144300
Si      -2.17084000      -0.00432000       4.06577000
Si      -1.50396000       3.75080000      -2.93000000
Si       2.30450000       4.55711000      -0.09504000
Al      -4.56431000      -2.31170000      -0.09504000
Si      -4.51096000      -0.00432000       1.96962000
Si       1.49819000      -3.75943000      -2.93000000
Si      -2.31028000      -4.56574000      -0.09504000
Si      -0.00289000       2.16363000       4.06577000
Si       1.49819000       3.75080000      -2.93000000
Si      -2.31028000       4.55711000      -0.09504000
Si      -0.00289100       4.50376000       1.96962000
Si      -0.00289000      -2.17227000       4.06577000
Si       3.75222000       1.49676000      -2.93000000
Si      -1.50396000      -3.75943000      -2.93000000
Si       2.30450000      -4.56574000      -0.09504000
Al      -0.00289000      -4.51239000       1.96962000
Si      -3.75800000      -1.50539000      -2.93000000
Si      -4.56431000       2.30307000      -0.09504000
Si      -3.75800000       1.49676000      -2.93000000
Si       4.55854000      -2.31170000      -0.09504000
Si       2.16506000      -0.00432000       4.06577000
Si       3.75222000      -1.50539000      -2.93000000
Si       4.55854000       2.30307000      -0.09504000
Si       4.50519000      -0.00432000       1.96962000
O       -4.75589000       1.90052000      -4.12699000
O        4.51004000      -1.55389000      -1.51252000
O        4.15477000      -1.31382000       1.10195000
O        6.05961000      -2.84035000       0.15982000
O        3.57035000      -0.00432000       3.28115000
O        2.46940000      -0.00432000       5.64648000
O        4.75011000      -1.90915000      -4.12699000
O       -1.31239000       4.15335000       1.10195000
O       -6.06539000      -0.00432000       2.38770000
O        1.54669000      -4.51724000      -1.51252000
O       -4.16055000       1.30518000       1.10195000
O       -3.57613000      -0.00432000       3.28115000
O       -2.47518000      -0.00432000       5.64648000
O       -1.55246000       4.50861000      -1.51252000
O       -1.31724000      -1.31867000       3.69351000
O       -1.31724000       1.31003000       3.69351000
O       -1.90773000       4.74868000      -4.12699000
O       -0.00289000       3.22215000      -3.18486000
O       -4.75589000      -1.90915000      -4.12699000
O       -3.22935000      -0.00432000      -3.18486000
O        4.15477000       1.30518000       1.10195000
O        6.05961000       2.83172000       0.15982000
O        6.05961000      -0.00432000       2.38770000
O       -2.83893000       6.05818000       0.15982000
O       -3.57491000       3.56771000      -0.12081000
O       -0.00288900       6.05818000       2.38770000
O       -0.00289000      -3.57755000       3.28115000
O       -0.00289000      -2.47660000       5.64648000
O       -2.49336000       2.48616000      -2.90423000
O        1.54669000       4.50861000      -1.51252000
O        1.30661000       4.15335000       1.10195000
O        2.83315000       6.05818000       0.15982000
O        3.56914000       3.56771000      -0.12081000
O       -4.51581000      -1.55389000      -1.51252000
O       -4.16055000      -1.31382000       1.10195000
O       -6.06539000      -2.84035000       0.15982000
O       -3.57491000      -3.57634000      -0.12081000
O        1.90195000      -4.75732000      -4.12699000
O       -4.51581000       1.54526000      -1.51252000
O       -6.06539000       2.83172000       0.15982000
O        1.31146000      -1.31867000       3.69351000
O        4.51004000       1.54526000      -1.51252000
O        4.75011000       1.90052000      -4.12699000
O        3.22357000      -0.00432000      -3.18486000
O       -1.90773000      -4.75732000      -4.12699000
O       -2.49336000      -2.49479000      -2.90423000
O        1.30661000      -4.16198000       1.10195000
O        2.83315000      -6.06682000       0.15982000
O        3.56914000      -3.57634000      -0.12081000
O       -0.00289000      -6.06682000       2.38770000
O       -0.00289000      -3.23078000      -3.18486000
O        2.48759000      -2.49479000      -2.90423000
O       -1.55246000      -4.51724000      -1.51252000
O       -1.31239000      -4.16198000       1.10195000
O       -2.83893000      -6.06682000       0.15982000
O       -0.00289000       3.56892000       3.28115000
O       -0.00289000       2.46797000       5.64648000
O        1.31146000       1.31003000       3.69351000
O        1.90195000       4.74868000      -4.12699000
O        2.48759000       2.48616000      -2.90423000
H       -5.36336000       2.14632000      -4.85566000
H        6.97233000      -3.16180000       0.31479000
H        2.65468000      -0.00432000       6.60881000
H        5.35758000      -2.15495000      -4.85566000
H       -7.01176000      -0.00432000       2.64224000
H       -2.66046000      -0.00432000       6.60881000
H       -2.15352000       5.35616000      -4.85566000
H       -5.36336000      -2.15495000      -4.85566000
H        6.97233000       3.15316000       0.31479000
H        7.00598000      -0.00432000       2.64224000
H       -3.16037000       6.97091000       0.31479000
H       -0.00289000       7.00455000       2.64224000
H       -0.00289000      -2.66188000       6.60881000
H        3.15459000       6.97091000       0.31479000
H       -6.97811000      -3.16180000       0.31479000
H        2.14774000      -5.36479000      -4.85566000
H       -6.97811000       3.15316000       0.31479000
H        5.35758000       2.14632000      -4.85566000
H       -2.15352000      -5.36479000      -4.85566000
H        3.15459000      -6.97954000       0.31479000
H       -0.00289000      -7.01318000       2.64224000
H       -3.16037000      -6.97954000       0.31479000
H       -0.00289000       2.65325000       6.60881000
H        2.14774000       5.35616000      -4.85566000
