145
Properties=species:S:1:pos:R:3 pbc="F F F"
Sr       0.00717100      -0.04191600      -0.00241500
Si      -3.35047000       1.55262000       5.53538000
Al       3.75190000      -3.35197000       1.55412000
Si      -3.75361000       3.34726000      -1.55584000
Si       5.53539000       1.55262000       3.34875000
Si      -5.53710000      -1.55734000       3.34875000
Si       3.34876000      -1.55734000      -5.53711000
Si       1.55412000       3.34726000       3.75189000
Si      -1.55584000      -3.35197000      -3.75362000
Si       3.75190000      -3.35197000      -1.55584000
Si       3.34876000       1.55262000      -5.53711000
Si      -3.75361000       3.34726000       1.55412000
Si       5.53539000       1.55262000      -3.35048000
Si      -5.53710000       1.55262000      -3.35048000
Si      -3.35047000      -1.55734000       5.53538000
Si       1.55412000       3.34726000      -3.75362000
Si      -3.75361000      -3.35197000       1.55412000
Si      -1.55584000      -3.35197000       3.75189000
Si       5.53539000      -1.55734000       3.34875000
Si       3.34876000       1.55262000       5.53538000
Si      -5.53710000       1.55262000       3.34875000
Si      -3.35047000      -1.55734000      -5.53711000
Si       1.55412000      -3.35197000       3.75189000
Si       3.75190000       3.34726000      -1.55584000
Si      -1.55584000       3.34726000      -3.75362000
Si      -3.35047000       1.55262000      -5.53711000
Si      -3.75361000      -3.35197000      -1.55584000
Si       5.53539000      -1.55734000      -3.35048000
Al      -5.53710000      -1.55734000      -3.35048000
Si       1.55412000      -3.35197000      -3.75362000
Si       3.34876000      -1.55734000       5.53538000
Si       3.75190000       3.34726000       1.55412000
Si      -1.55584000       3.34726000       3.75189000
O       -6.92859000       2.35891000       3.43793000
O        1.70460000       4.73875000      -4.54876000
O        2.36041000       3.43643000      -2.36213000
O       -3.44893000      -3.07144000      -0.00086000
O       -4.54875000      -4.74346000       1.70460000
O       -2.36212000      -3.44115000       2.36040000
O       -0.00086000      -3.07144000       3.44721000
O       -1.70632000      -4.74346000       4.54703000
O       -2.15219000      -2.15369000      -4.64536000
O       -4.74196000      -1.70782000       4.74024000
O       -4.64536000      -2.15369000       2.15047000
O       -2.36212000      -3.44115000      -2.36213000
O        4.54704000      -4.74346000      -1.70632000
O        4.64364000      -2.15369000      -2.15219000
O        2.36041000      -3.44115000      -2.36213000
O        4.74025000       1.70310000      -4.74197000
O       -5.84178000      -0.00236000       3.06822000
O       -3.06994000      -0.00236000       5.84006000
O       -4.74196000       1.70310000       4.74024000
O        3.44722000      -3.07144000      -0.00086000
O       -2.15219000       2.14897000       4.64364000
O       -3.43965000       2.35891000       6.92687000
O        4.54704000      -4.74346000       1.70460000
O        4.64364000      -2.15369000       2.15047000
O       -6.92859000       2.35891000      -3.43965000
O       -2.15219000      -2.15369000       4.64364000
O        1.70460000      -4.74346000      -4.54876000
O        3.06823000      -0.00236000      -5.84179000
O        4.74025000      -1.70782000      -4.74197000
O        2.15047000      -2.15369000      -4.64536000
O        3.43793000      -2.36362000      -6.92860000
O       -0.00086000       3.06673000       3.44721000
O        1.70460000       4.73875000       4.54703000
O        2.15047000       2.14897000       4.64364000
O        2.36041000       3.43643000       2.36040000
O       -0.00086000      -3.07144000      -3.44894000
O       -1.70632000      -4.74346000      -4.54876000
O        3.43793000      -2.36362000       6.92687000
O        4.54704000       4.73875000       1.70460000
O       -1.70632000       4.73875000       4.54703000
O        2.36041000      -3.44115000       2.36040000
O       -3.44893000       3.06673000      -0.00086000
O       -4.54875000       4.73875000      -1.70632000
O       -4.64536000       2.14897000      -2.15219000
O       -2.36212000       3.43643000      -2.36213000
O        5.84007000      -0.00236000       3.06822000
O        4.74025000       1.70310000       4.74024000
O        4.64364000       2.14897000       2.15047000
O        6.92688000       2.35891000       3.43793000
O       -6.92859000      -2.36362000       3.43793000
O        1.70460000      -4.74346000       4.54703000
O        2.15047000      -2.15369000       4.64364000
O        3.44722000       3.06673000      -0.00086000
O       -3.06994000      -0.00236000      -5.84179000
O       -4.74196000      -1.70782000      -4.74197000
O       -3.43965000      -2.36362000      -6.92860000
O        4.74025000      -1.70782000       4.74024000
O        6.92688000      -2.36362000       3.43793000
O        3.06823000      -0.00236000       5.84006000
O        3.43793000       2.35891000       6.92687000
O       -3.43965000      -2.36362000       6.92687000
O       -0.00086000       3.06673000      -3.44894000
O        2.15047000       2.14897000      -4.64536000
O        3.43793000       2.35891000      -6.92860000
O       -4.54875000       4.73875000       1.70460000
O       -4.64536000       2.14897000       2.15047000
O       -2.36212000       3.43643000       2.36040000
O        5.84007000      -0.00236000      -3.06995000
O        4.64364000       2.14897000      -2.15219000
O        6.92688000       2.35891000      -3.43965000
O       -5.84178000      -0.00236000      -3.06995000
O       -4.74196000       1.70310000      -4.74197000
O        4.54704000       4.73875000      -1.70632000
O       -1.70632000       4.73875000      -4.54876000
O       -2.15219000       2.14897000      -4.64536000
O       -3.43965000       2.35891000      -6.92860000
O       -4.54875000      -4.74346000      -1.70632000
O       -4.64536000      -2.15369000      -2.15219000
O        6.92688000      -2.36362000      -3.43965000
O       -6.92859000      -2.36362000      -3.43965000
H       -7.77523000       2.84948000       3.49218000
H        1.79622000       5.58590000      -5.03284000
H       -5.03284000      -5.59062000       1.79621000
H       -1.79793000      -5.59062000       5.03112000
H        5.03112000      -5.59062000      -1.79794000
H       -3.49390000       2.84948000       7.77351000
H        5.03112000      -5.59062000       1.79621000
H       -7.77523000       2.84948000      -3.49391000
H        1.79622000      -5.59062000      -5.03284000
H        3.49219000      -2.85420000      -7.77523000
H        1.79622000       5.58590000       5.03112000
H       -1.79793000      -5.59062000      -5.03284000
H        3.49219000      -2.85420000       7.77351000
H        5.03112000       5.58590000       1.79621000
H       -1.79793000       5.58590000       5.03112000
H       -5.03284000       5.58590000      -1.79794000
H        7.77351000       2.84948000       3.49218000
H       -7.77523000      -2.85420000       3.49218000
H        1.79622000      -5.59062000       5.03112000
H       -3.49390000      -2.85420000      -7.77523000
H        7.77351000      -2.85420000       3.49218000
H        3.49219000       2.84948000       7.77351000
H       -3.49390000      -2.85420000       7.77351000
H        3.49219000       2.84948000      -7.77523000
H       -5.03284000       5.58590000       1.79621000
H        7.77351000       2.84948000      -3.49391000
H        5.03112000       5.58590000      -1.79794000
H       -1.79793000       5.58590000      -5.03284000
H       -3.49390000       2.84948000      -7.77523000
H       -5.03284000      -5.59062000      -1.79794000
H        7.77351000      -2.85420000      -3.49391000
H       -7.77523000      -2.85420000      -3.49391000
