109
Properties=species:S:1:pos:R:3 pbc="F F F"
Sr      -0.02294100       0.02264700       0.02248000
Si      -2.17080000       0.00285000       4.06708000
Si      -1.50393000       3.75797000      -2.92869000
Si       2.30453000       4.56428000      -0.09373000
Si      -4.56428000      -2.30453000      -0.09373000
Al      -4.51093000       0.00285000       1.97093000
Si       1.49822000      -3.75226000      -2.92869000
Si      -2.31024000      -4.55857000      -0.09373000
Si      -0.00285000       2.17080000       4.06708000
Si       1.49822000       3.75797000      -2.92869000
Si      -2.31024000       4.56428000      -0.09373000
Al      -0.00285000       4.51093000       1.97093000
Si      -0.00285000      -2.16510000       4.06708000
Si       3.75226000       1.50393000      -2.92869000
Si      -1.50393000      -3.75226000      -2.92869000
Si       2.30453000      -4.55857000      -0.09373000
Si      -0.00285000      -4.50522000       1.97093000
Si      -3.75797000      -1.49822000      -2.92869000
Si      -4.56428000       2.31024000      -0.09373000
Si      -3.75797000       1.50393000      -2.92869000
Si       4.55857000      -2.30453000      -0.09373000
Si       2.16510000       0.00285000       4.06708000
Si       3.75226000      -1.49822000      -2.92869000
Si       4.55857000       2.31024000      -0.09373000
Si       4.50522000       0.00285000       1.97093000
O       -4.75585000       1.90769000      -4.12568000
O        4.51007000      -1.54672000      -1.51121000
O        4.15481000      -1.30665000       1.10326000
O        6.05965000      -2.83318000       0.16113000
O        3.57038000       0.00285000       3.28245000
O        2.46943000       0.00285000       5.64779000
O        4.75015000      -1.90198000      -4.12568000
O       -1.31235000       4.16052000       1.10326000
O       -6.06535000       0.00285000       2.38901000
O        1.54672000      -4.51007000      -1.51121000
O       -4.16052000       1.31235000       1.10326000
O       -3.57609000       0.00285000       3.28245000
O       -2.47514000       0.00285000       5.64779000
O       -1.55243000       4.51578000      -1.51121000
O       -1.31720000      -1.31150000       3.69481000
O       -1.31720000       1.31720000       3.69481000
O       -1.90769000       4.75585000      -4.12568000
O       -0.00285000       3.22932000      -3.18355000
O       -4.75585000      -1.90198000      -4.12568000
O       -3.22932000       0.00285000      -3.18355000
O        4.15481000       1.31235000       1.10326000
O        6.05965000       2.83889000       0.16113000
O        6.05965000       0.00285000       2.38901000
O       -2.83889000       6.06535000       0.16113000
O       -3.57488000       3.57488000      -0.11950000
O       -0.00285000       6.06535000       2.38901000
O       -0.00285000      -3.57038000       3.28245000
O       -0.00285000      -2.46943000       5.64779000
O       -2.49333000       2.49333000      -2.90292000
O        1.54672000       4.51578000      -1.51121000
O        1.30665000       4.16052000       1.10326000
O        2.83318000       6.06535000       0.16113000
O        3.56917000       3.57488000      -0.11950000
O       -4.51578000      -1.54672000      -1.51121000
O       -4.16052000      -1.30665000       1.10326000
O       -6.06535000      -2.83318000       0.16113000
O       -3.57488000      -3.56917000      -0.11950000
O        1.90198000      -4.75015000      -4.12568000
O       -4.51578000       1.55243000      -1.51121000
O       -6.06535000       2.83889000       0.16113000
O        1.31150000      -1.31150000       3.69481000
O        4.51007000       1.55243000      -1.51121000
O        4.75015000       1.90769000      -4.12568000
O        3.22361000       0.00285000      -3.18355000
O       -1.90769000      -4.75015000      -4.12568000
O       -2.49333000      -2.48762000      -2.90292000
O        1.30665000      -4.15481000       1.10326000
O        2.83318000      -6.05965000       0.16113000
O        3.56917000      -3.56917000      -0.11950000
O       -0.00285000      -6.05965000       2.38901000
O       -0.00285000      -3.22361000      -3.18355000
O        2.48762000      -2.48762000      -2.90292000
O       -1.55243000      -4.51007000      -1.51121000
O       -1.31235000      -4.15481000       1.10326000
O       -2.83889000      -6.05965000       0.16113000
O       -0.00285000       3.57609000       3.28245000
O       -0.00285000       2.47514000       5.64779000
O        1.31150000       1.31720000       3.69481000
O        1.90198000       4.75585000      -4.12568000
O        2.48762000       2.49333000      -2.90292000
H       -5.36333000       2.15349000      -4.85435000
H        6.97237000      -3.15463000       0.31610000
H        2.65471000       0.00285000       6.61011000
H        5.35762000      -2.14778000      -4.85435000
H       -7.01172000       0.00285000       2.64355000
H       -2.66042000       0.00285000       6.61011000
H       -2.15349000       5.36333000      -4.85435000
H       -5.36333000      -2.14778000      -4.85435000
H        6.97237000       3.16033000       0.31610000
H        7.00601000       0.00285000       2.64355000
H       -3.16033000       6.97808000       0.31610000
H       -0.00285000       7.01172000       2.64355000
H       -0.00285000      -2.65471000       6.61011000
H        3.15463000       6.97808000       0.31610000
H       -6.97808000      -3.15463000       0.31610000
H        2.14778000      -5.35762000      -4.85435000
H       -6.97808000       3.16033000       0.31610000
H        5.35762000       2.15349000      -4.85435000
H       -2.15349000      -5.35762000      -4.85435000
H        3.15463000      -6.97237000       0.31610000
H       -0.00285000      -7.00601000       2.64355000
H       -3.16033000      -6.97237000       0.31610000
H       -0.00285000       2.66042000       6.61011000
H        2.14778000       5.36333000      -4.85435000
