145
Properties=species:S:1:pos:R:3 pbc="F F F"
Sr       0.02426600      -0.00022200      -0.02415300
Si      -3.34856000       1.55498000       5.53519000
Si       3.75381000      -3.34961000       1.55393000
Si      -3.75170000       3.34961000      -1.55603000
Al       5.53730000       1.55498000       3.34856000
Si      -5.53519000      -1.55498000       3.34856000
Si       3.35066000      -1.55498000      -5.53730000
Si       1.55603000       3.34961000       3.75170000
Si      -1.55393000      -3.34961000      -3.75381000
Si       3.75381000      -3.34961000      -1.55603000
Si       3.35066000       1.55498000      -5.53730000
Si      -3.75170000       3.34961000       1.55393000
Si       5.53730000       1.55498000      -3.35066000
Si      -5.53519000       1.55498000      -3.35066000
Si      -3.34856000      -1.55498000       5.53519000
Si       1.55603000       3.34961000      -3.75381000
Si      -3.75170000      -3.34961000       1.55393000
Si      -1.55393000      -3.34961000       3.75170000
Si       5.53730000      -1.55498000       3.34856000
Si       3.35066000       1.55498000       5.53519000
Si      -5.53519000       1.55498000       3.34856000
Al      -3.34856000      -1.55498000      -5.53730000
Si       1.55603000      -3.34961000       3.75170000
Si       3.75381000       3.34961000      -1.55603000
Si      -1.55393000       3.34961000      -3.75381000
Si      -3.34856000       1.55498000      -5.53730000
Si      -3.75170000      -3.34961000      -1.55603000
Si       5.53730000      -1.55498000      -3.35066000
Si      -5.53519000      -1.55498000      -3.35066000
Si       1.55603000      -3.34961000      -3.75381000
Si       3.35066000      -1.55498000       5.53519000
Si       3.75381000       3.34961000       1.55393000
Si      -1.55393000       3.34961000       3.75170000
O       -6.92668000       2.36126000       3.43774000
O        1.70651000       4.74111000      -4.54895000
O        2.36232000       3.43879000      -2.36232000
O       -3.44703000      -3.06909000      -0.00105000
O       -4.54684000      -4.74111000       1.70441000
O       -2.36021000      -3.43879000       2.36021000
O        0.00105000      -3.06909000       3.44703000
O       -1.70441000      -4.74111000       4.54684000
O       -2.15028000      -2.15133000      -4.64555000
O       -4.74005000      -1.70546000       4.74005000
O       -4.64345000      -2.15133000       2.15028000
O       -2.36021000      -3.43879000      -2.36232000
O        4.54895000      -4.74111000      -1.70651000
O        4.64555000      -2.15133000      -2.15238000
O        2.36232000      -3.43879000      -2.36232000
O        4.74216000       1.70546000      -4.74216000
O       -5.83987000       0.00000000       3.06803000
O       -3.06803000       0.00000000       5.83987000
O       -4.74005000       1.70546000       4.74005000
O        3.44913000      -3.06909000      -0.00105000
O       -2.15028000       2.15133000       4.64345000
O       -3.43774000       2.36126000       6.92668000
O        4.54895000      -4.74111000       1.70441000
O        4.64555000      -2.15133000       2.15028000
O       -6.92668000       2.36126000      -3.43984000
O       -2.15028000      -2.15133000       4.64345000
O        1.70651000      -4.74111000      -4.54895000
O        3.07014000       0.00000000      -5.84197000
O        4.74216000      -1.70546000      -4.74216000
O        2.15238000      -2.15133000      -4.64555000
O        3.43984000      -2.36126000      -6.92879000
O        0.00105000       3.06909000       3.44703000
O        1.70651000       4.74111000       4.54684000
O        2.15238000       2.15133000       4.64345000
O        2.36232000       3.43879000       2.36021000
O        0.00105000      -3.06909000      -3.44913000
O       -1.70441000      -4.74111000      -4.54895000
O        3.43984000      -2.36126000       6.92668000
O        4.54895000       4.74111000       1.70441000
O       -1.70441000       4.74111000       4.54684000
O        2.36232000      -3.43879000       2.36021000
O       -3.44703000       3.06909000      -0.00105000
O       -4.54684000       4.74111000      -1.70651000
O       -4.64345000       2.15133000      -2.15238000
O       -2.36021000       3.43879000      -2.36232000
O        5.84197000       0.00000000       3.06803000
O        4.74216000       1.70546000       4.74005000
O        4.64555000       2.15133000       2.15028000
O        6.92879000       2.36126000       3.43774000
O       -6.92668000      -2.36126000       3.43774000
O        1.70651000      -4.74111000       4.54684000
O        2.15238000      -2.15133000       4.64345000
O        3.44913000       3.06909000      -0.00105000
O       -3.06803000       0.00000000      -5.84197000
O       -4.74005000      -1.70546000      -4.74216000
O       -3.43774000      -2.36126000      -6.92879000
O        4.74216000      -1.70546000       4.74005000
O        6.92879000      -2.36126000       3.43774000
O        3.07014000       0.00000000       5.83987000
O        3.43984000       2.36126000       6.92668000
O       -3.43774000      -2.36126000       6.92668000
O        0.00105000       3.06909000      -3.44913000
O        2.15238000       2.15133000      -4.64555000
O        3.43984000       2.36126000      -6.92879000
O       -4.54684000       4.74111000       1.70441000
O       -4.64345000       2.15133000       2.15028000
O       -2.36021000       3.43879000       2.36021000
O        5.84197000       0.00000000      -3.07014000
O        4.64555000       2.15133000      -2.15238000
O        6.92879000       2.36126000      -3.43984000
O       -5.83987000       0.00000000      -3.07014000
O       -4.74005000       1.70546000      -4.74216000
O        4.54895000       4.74111000      -1.70651000
O       -1.70441000       4.74111000      -4.54895000
O       -2.15028000       2.15133000      -4.64555000
O       -3.43774000       2.36126000      -6.92879000
O       -4.54684000      -4.74111000      -1.70651000
O       -4.64345000      -2.15133000      -2.15238000
O        6.92879000      -2.36126000      -3.43984000
O       -6.92668000      -2.36126000      -3.43984000
H       -7.77332000       2.85184000       3.49199000
H        1.79813000       5.58826000      -5.03303000
H       -5.03093000      -5.58826000       1.79602000
H       -1.79602000      -5.58826000       5.03093000
H        5.03303000      -5.58826000      -1.79813000
H       -3.49199000       2.85184000       7.77332000
H        5.03303000      -5.58826000       1.79602000
H       -7.77332000       2.85184000      -3.49410000
H        1.79813000      -5.58826000      -5.03303000
H        3.49410000      -2.85184000      -7.77542000
H        1.79813000       5.58826000       5.03093000
H       -1.79602000      -5.58826000      -5.03303000
H        3.49410000      -2.85184000       7.77332000
H        5.03303000       5.58826000       1.79602000
H       -1.79602000       5.58826000       5.03093000
H       -5.03093000       5.58826000      -1.79813000
H        7.77542000       2.85184000       3.49199000
H       -7.77332000      -2.85184000       3.49199000
H        1.79813000      -5.58826000       5.03093000
H       -3.49199000      -2.85184000      -7.77542000
H        7.77542000      -2.85184000       3.49199000
H        3.49410000       2.85184000       7.77332000
H       -3.49199000      -2.85184000       7.77332000
H        3.49410000       2.85184000      -7.77542000
H       -5.03093000       5.58826000       1.79602000
H        7.77542000       2.85184000      -3.49410000
H        5.03303000       5.58826000      -1.79813000
H       -1.79602000       5.58826000      -5.03303000
H       -3.49199000       2.85184000      -7.77542000
H       -5.03093000      -5.58826000      -1.79813000
H        7.77542000      -2.85184000      -3.49410000
H       -7.77332000      -2.85184000      -3.49410000
