145
Properties=species:S:1:pos:R:3 pbc="F F F"
Sr       0.00000000       0.00000000       0.00000000
Si      -3.34961000       1.55498000       5.53624000
Si       3.75276000      -3.34961000       1.55498000
Si      -3.75276000       3.34961000      -1.55498000
Si       5.53624000       1.55498000       3.34961000
Si      -5.53624000      -1.55498000       3.34961000
Si       3.34961000      -1.55498000      -5.53624000
Al       1.55498000       3.34961000       3.75276000
Al      -1.55498000      -3.34961000      -3.75276000
Si       3.75276000      -3.34961000      -1.55498000
Si       3.34961000       1.55498000      -5.53624000
Si      -3.75276000       3.34961000       1.55498000
Si       5.53624000       1.55498000      -3.34961000
Si      -5.53624000       1.55498000      -3.34961000
Si      -3.34961000      -1.55498000       5.53624000
Si       1.55498000       3.34961000      -3.75276000
Si      -3.75276000      -3.34961000       1.55498000
Si      -1.55498000      -3.34961000       3.75276000
Si       5.53624000      -1.55498000       3.34961000
Si       3.34961000       1.55498000       5.53624000
Si      -5.53624000       1.55498000       3.34961000
Si      -3.34961000      -1.55498000      -5.53624000
Si       1.55498000      -3.34961000       3.75276000
Si       3.75276000       3.34961000      -1.55498000
Si      -1.55498000       3.34961000      -3.75276000
Si      -3.34961000       1.55498000      -5.53624000
Si      -3.75276000      -3.34961000      -1.55498000
Si       5.53624000      -1.55498000      -3.34961000
Si      -5.53624000      -1.55498000      -3.34961000
Si       1.55498000      -3.34961000      -3.75276000
Si       3.34961000      -1.55498000       5.53624000
Si       3.75276000       3.34961000       1.55498000
Si      -1.55498000       3.34961000       3.75276000
O       -6.92774000       2.36126000       3.43879000
O        1.70546000       4.74111000      -4.54789000
O        2.36126000       3.43879000      -2.36126000
O       -3.44808000      -3.06909000       0.00000000
O       -4.54789000      -4.74111000       1.70546000
O       -2.36126000      -3.43879000       2.36126000
O        0.00000000      -3.06909000       3.44808000
O       -1.70546000      -4.74111000       4.54789000
O       -2.15133000      -2.15133000      -4.64450000
O       -4.74111000      -1.70546000       4.74111000
O       -4.64450000      -2.15133000       2.15133000
O       -2.36126000      -3.43879000      -2.36126000
O        4.54789000      -4.74111000      -1.70546000
O        4.64450000      -2.15133000      -2.15133000
O        2.36126000      -3.43879000      -2.36126000
O        4.74111000       1.70546000      -4.74111000
O       -5.84092000       0.00000000       3.06909000
O       -3.06909000       0.00000000       5.84092000
O       -4.74111000       1.70546000       4.74111000
O        3.44808000      -3.06909000       0.00000000
O       -2.15133000       2.15133000       4.64450000
O       -3.43879000       2.36126000       6.92774000
O        4.54789000      -4.74111000       1.70546000
O        4.64450000      -2.15133000       2.15133000
O       -6.92774000       2.36126000      -3.43879000
O       -2.15133000      -2.15133000       4.64450000
O        1.70546000      -4.74111000      -4.54789000
O        3.06909000       0.00000000      -5.84092000
O        4.74111000      -1.70546000      -4.74111000
O        2.15133000      -2.15133000      -4.64450000
O        3.43879000      -2.36126000      -6.92774000
O        0.00000000       3.06909000       3.44808000
O        1.70546000       4.74111000       4.54789000
O        2.15133000       2.15133000       4.64450000
O        2.36126000       3.43879000       2.36126000
O        0.00000000      -3.06909000      -3.44808000
O       -1.70546000      -4.74111000      -4.54789000
O        3.43879000      -2.36126000       6.92774000
O        4.54789000       4.74111000       1.70546000
O       -1.70546000       4.74111000       4.54789000
O        2.36126000      -3.43879000       2.36126000
O       -3.44808000       3.06909000       0.00000000
O       -4.54789000       4.74111000      -1.70546000
O       -4.64450000       2.15133000      -2.15133000
O       -2.36126000       3.43879000      -2.36126000
O        5.84092000       0.00000000       3.06909000
O        4.74111000       1.70546000       4.74111000
O        4.64450000       2.15133000       2.15133000
O        6.92774000       2.36126000       3.43879000
O       -6.92774000      -2.36126000       3.43879000
O        1.70546000      -4.74111000       4.54789000
O        2.15133000      -2.15133000       4.64450000
O        3.44808000       3.06909000       0.00000000
O       -3.06909000       0.00000000      -5.84092000
O       -4.74111000      -1.70546000      -4.74111000
O       -3.43879000      -2.36126000      -6.92774000
O        4.74111000      -1.70546000       4.74111000
O        6.92774000      -2.36126000       3.43879000
O        3.06909000       0.00000000       5.84092000
O        3.43879000       2.36126000       6.92774000
O       -3.43879000      -2.36126000       6.92774000
O        0.00000000       3.06909000      -3.44808000
O        2.15133000       2.15133000      -4.64450000
O        3.43879000       2.36126000      -6.92774000
O       -4.54789000       4.74111000       1.70546000
O       -4.64450000       2.15133000       2.15133000
O       -2.36126000       3.43879000       2.36126000
O        5.84092000       0.00000000      -3.06909000
O        4.64450000       2.15133000      -2.15133000
O        6.92774000       2.36126000      -3.43879000
O       -5.84092000       0.00000000      -3.06909000
O       -4.74111000       1.70546000      -4.74111000
O        4.54789000       4.74111000      -1.70546000
O       -1.70546000       4.74111000      -4.54789000
O       -2.15133000       2.15133000      -4.64450000
O       -3.43879000       2.36126000      -6.92774000
O       -4.54789000      -4.74111000      -1.70546000
O       -4.64450000      -2.15133000      -2.15133000
O        6.92774000      -2.36126000      -3.43879000
O       -6.92774000      -2.36126000      -3.43879000
H       -7.77437000       2.85184000       3.49304000
H        1.79707000       5.58826000      -5.03198000
H       -5.03198000      -5.58826000       1.79707000
H       -1.79708000      -5.58826000       5.03198000
H        5.03198000      -5.58826000      -1.79708000
H       -3.49305000       2.85184000       7.77437000
H        5.03198000      -5.58826000       1.79707000
H       -7.77437000       2.85184000      -3.49305000
H        1.79707000      -5.58826000      -5.03198000
H        3.49304000      -2.85184000      -7.77437000
H        1.79707000       5.58826000       5.03198000
H       -1.79708000      -5.58826000      -5.03198000
H        3.49304000      -2.85184000       7.77437000
H        5.03198000       5.58826000       1.79707000
H       -1.79708000       5.58826000       5.03198000
H       -5.03198000       5.58826000      -1.79708000
H        7.77437000       2.85184000       3.49304000
H       -7.77437000      -2.85184000       3.49304000
H        1.79707000      -5.58826000       5.03198000
H       -3.49305000      -2.85184000      -7.77437000
H        7.77437000      -2.85184000       3.49304000
H        3.49304000       2.85184000       7.77437000
H       -3.49305000      -2.85184000       7.77437000
H        3.49304000       2.85184000      -7.77437000
H       -5.03198000       5.58826000       1.79707000
H        7.77437000       2.85184000      -3.49305000
H        5.03198000       5.58826000      -1.79708000
H       -1.79708000       5.58826000      -5.03198000
H       -3.49305000       2.85184000      -7.77437000
H       -5.03198000      -5.58826000      -1.79708000
H        7.77437000      -2.85184000      -3.49305000
H       -7.77437000      -2.85184000      -3.49305000
