109
Properties=species:S:1:pos:R:3 pbc="F F F"
Sr       0.00000000       0.00000000       0.00134100
Si      -2.16795000       0.00000000       4.06447000
Si      -1.50108000       3.75511000      -2.93131000
Si       2.30739000       4.56143000      -0.09634000
Al      -4.56143000      -2.30739000      -0.09634000
Si      -4.50808000       0.00000000       1.96831000
Si       1.50107000      -3.75511000      -2.93131000
Si      -2.30739000      -4.56142000      -0.09634000
Si       0.00000000       2.16795000       4.06447000
Si       1.50107000       3.75511000      -2.93131000
Si      -2.30739000       4.56143000      -0.09634000
Si       0.00000000       4.50808000       1.96831000
Si       0.00000000      -2.16795000       4.06447000
Si       3.75511000       1.50108000      -2.93131000
Si      -1.50108000      -3.75511000      -2.93131000
Si       2.30739000      -4.56142000      -0.09634000
Si       0.00000000      -4.50807000       1.96831000
Si      -3.75511000      -1.50107000      -2.93131000
Si      -4.56143000       2.30739000      -0.09634000
Si      -3.75511000       1.50108000      -2.93131000
Si       4.56142000      -2.30739000      -0.09634000
Si       2.16795000       0.00000000       4.06447000
Si       3.75511000      -1.50107000      -2.93131000
Al       4.56142000       2.30739000      -0.09634000
Si       4.50807000       0.00000000       1.96831000
O       -4.75300000       1.90484000      -4.12829000
O        4.51292000      -1.54957000      -1.51383000
O        4.15766000      -1.30950000       1.10064000
O        6.06250000      -2.83604000       0.15852000
O        3.57324000       0.00000000       3.27984000
O        2.47229000       0.00000000       5.64517000
O        4.75300000      -1.90484000      -4.12829000
O       -1.30950000       4.15766000       1.10064000
O       -6.06250000       0.00000000       2.38640000
O        1.54957000      -4.51292000      -1.51383000
O       -4.15766000       1.30950000       1.10064000
O       -3.57324000       0.00000000       3.27984000
O       -2.47229000       0.00000000       5.64517000
O       -1.54958000       4.51293000      -1.51383000
O       -1.31435000      -1.31435000       3.69220000
O       -1.31435000       1.31435000       3.69220000
O       -1.90484000       4.75300000      -4.12829000
O        0.00000000       3.22646000      -3.18617000
O       -4.75300000      -1.90484000      -4.12829000
O       -3.22646000       0.00000000      -3.18617000
O        4.15766000       1.30950000       1.10064000
O        6.06250000       2.83604000       0.15852000
O        6.06250000       0.00000000       2.38640000
O       -2.83604000       6.06250000       0.15852000
O       -3.57203000       3.57203000      -0.12212000
O        0.00000000       6.06250000       2.38640000
O        0.00000000      -3.57324000       3.27984000
O        0.00000000      -2.47229000       5.64517000
O       -2.49048000       2.49048000      -2.90554000
O        1.54957000       4.51293000      -1.51383000
O        1.30950000       4.15766000       1.10064000
O        2.83604000       6.06250000       0.15852000
O        3.57202000       3.57203000      -0.12212000
O       -4.51293000      -1.54957000      -1.51383000
O       -4.15766000      -1.30950000       1.10064000
O       -6.06250000      -2.83604000       0.15852000
O       -3.57203000      -3.57202000      -0.12212000
O        1.90484000      -4.75300000      -4.12829000
O       -4.51293000       1.54958000      -1.51383000
O       -6.06250000       2.83604000       0.15852000
O        1.31435000      -1.31435000       3.69220000
O        4.51292000       1.54958000      -1.51383000
O        4.75300000       1.90484000      -4.12829000
O        3.22646000       0.00000000      -3.18617000
O       -1.90484000      -4.75300000      -4.12829000
O       -2.49048000      -2.49047000      -2.90554000
O        1.30950000      -4.15766000       1.10064000
O        2.83604000      -6.06250000       0.15852000
O        3.57202000      -3.57202000      -0.12212000
O        0.00000000      -6.06250000       2.38640000
O        0.00000000      -3.22646000      -3.18617000
O        2.49047000      -2.49047000      -2.90554000
O       -1.54958000      -4.51292000      -1.51383000
O       -1.30950000      -4.15766000       1.10064000
O       -2.83604000      -6.06250000       0.15852000
O        0.00000000       3.57324000       3.27984000
O        0.00000000       2.47229000       5.64517000
O        1.31435000       1.31435000       3.69220000
O        1.90484000       4.75300000      -4.12829000
O        2.49047000       2.49048000      -2.90554000
H       -5.36047000       2.15063000      -4.85697000
H        6.97522000      -3.15748000       0.31348000
H        2.65757000       0.00000000       6.60750000
H        5.36047000      -2.15063000      -4.85697000
H       -7.00887000       0.00000000       2.64094000
H       -2.65757000       0.00000000       6.60750000
H       -2.15063000       5.36047000      -4.85697000
H       -5.36047000      -2.15063000      -4.85697000
H        6.97522000       3.15748000       0.31348000
H        7.00887000       0.00000000       2.64094000
H       -3.15748000       6.97522000       0.31348000
H        0.00000000       7.00887000       2.64094000
H        0.00000000      -2.65757000       6.60750000
H        3.15748000       6.97522000       0.31348000
H       -6.97522000      -3.15748000       0.31348000
H        2.15063000      -5.36047000      -4.85697000
H       -6.97522000       3.15748000       0.31348000
H        5.36047000       2.15063000      -4.85697000
H       -2.15063000      -5.36047000      -4.85697000
H        3.15748000      -6.97522000       0.31348000
H        0.00000000      -7.00887000       2.64094000
H       -3.15748000      -6.97522000       0.31348000
H        0.00000000       2.65757000       6.60750000
H        2.15063000       5.36047000      -4.85697000
