109
Properties=species:S:1:pos:R:3 pbc="F F F"
Na      -0.01289300      -0.00011400       0.03313900
Al      -2.16937000       0.00000000       4.06733000
Si      -1.50250000       3.75511000      -2.92845000
Si       2.30596000       4.56143000      -0.09349000
Si      -4.56285000      -2.30739000      -0.09349000
Si      -4.50950000       0.00000000       1.97117000
Si       1.49965000      -3.75511000      -2.92845000
Si      -2.30881000      -4.56142000      -0.09349000
Si      -0.00142000       2.16795000       4.06733000
Si       1.49965000       3.75511000      -2.92845000
Si      -2.30881000       4.56143000      -0.09349000
Si      -0.00142100       4.50808000       1.97117000
Si      -0.00142000      -2.16795000       4.06733000
Si       3.75369000       1.50108000      -2.92845000
Si      -1.50250000      -3.75511000      -2.92845000
Si       2.30596000      -4.56142000      -0.09349000
Si      -0.00142000      -4.50807000       1.97117000
Si      -3.75654000      -1.50107000      -2.92845000
Si      -4.56285000       2.30739000      -0.09349000
Si      -3.75654000       1.50108000      -2.92845000
Si       4.56000000      -2.30739000      -0.09349000
Si       2.16653000       0.00000000       4.06733000
Si       3.75369000      -1.50107000      -2.92845000
Si       4.56000000       2.30739000      -0.09349000
Si       4.50665000       0.00000000       1.97117000
O       -4.75442000       1.90484000      -4.12543000
O        4.51150000      -1.54957000      -1.51097000
O        4.15624000      -1.30950000       1.10350000
O        6.06108000      -2.83604000       0.16137000
O        3.57181000       0.00000000       3.28270000
O        2.47086000       0.00000000       5.64803000
O        4.75158000      -1.90484000      -4.12543000
O       -1.31092000       4.15766000       1.10350000
O       -6.06392000       0.00000000       2.38926000
O        1.54815000      -4.51292000      -1.51097000
O       -4.15909000       1.30950000       1.10350000
O       -3.57466000       0.00000000       3.28270000
O       -2.47371000       0.00000000       5.64803000
O       -1.55100000       4.51293000      -1.51097000
O       -1.31577000      -1.31435000       3.69506000
O       -1.31577000       1.31435000       3.69506000
O       -1.90626000       4.75300000      -4.12543000
O       -0.00142000       3.22646000      -3.18331000
O       -4.75442000      -1.90484000      -4.12543000
O       -3.22789000       0.00000000      -3.18331000
O        4.15624000       1.30950000       1.10350000
O        6.06108000       2.83604000       0.16137000
O        6.06108000       0.00000000       2.38926000
O       -2.83746000       6.06250000       0.16137000
O       -3.57345000       3.57203000      -0.11926000
O       -0.00141900       6.06250000       2.38926000
O       -0.00142000      -3.57324000       3.28270000
O       -0.00142000      -2.47229000       5.64803000
O       -2.49190000       2.49048000      -2.90268000
O        1.54815000       4.51293000      -1.51097000
O        1.30808000       4.15766000       1.10350000
O        2.83461000       6.06250000       0.16137000
O        3.57060000       3.57203000      -0.11926000
O       -4.51435000      -1.54957000      -1.51097000
O       -4.15909000      -1.30950000       1.10350000
O       -6.06392000      -2.83604000       0.16137000
O       -3.57345000      -3.57202000      -0.11926000
O        1.90341000      -4.75300000      -4.12543000
O       -4.51435000       1.54958000      -1.51097000
O       -6.06392000       2.83604000       0.16137000
O        1.31293000      -1.31435000       3.69506000
O        4.51150000       1.54958000      -1.51097000
O        4.75158000       1.90484000      -4.12543000
O        3.22504000       0.00000000      -3.18331000
O       -1.90626000      -4.75300000      -4.12543000
O       -2.49190000      -2.49047000      -2.90268000
O        1.30808000      -4.15766000       1.10350000
O        2.83461000      -6.06250000       0.16137000
O        3.57060000      -3.57202000      -0.11926000
O       -0.00142000      -6.06250000       2.38926000
O       -0.00142000      -3.22646000      -3.18331000
O        2.48905000      -2.49047000      -2.90268000
O       -1.55100000      -4.51292000      -1.51097000
O       -1.31092000      -4.15766000       1.10350000
O       -2.83746000      -6.06250000       0.16137000
O       -0.00142000       3.57324000       3.28270000
O       -0.00142000       2.47229000       5.64803000
O        1.31293000       1.31435000       3.69506000
O        1.90341000       4.75300000      -4.12543000
O        2.48905000       2.49048000      -2.90268000
H       -5.36190000       2.15063000      -4.85411000
H        6.97380000      -3.15748000       0.31634000
H        2.65614000       0.00000000       6.61036000
H        5.35905000      -2.15063000      -4.85411000
H       -7.01029000       0.00000000       2.64379000
H       -2.65899000       0.00000000       6.61036000
H       -2.15206000       5.36047000      -4.85411000
H       -5.36190000      -2.15063000      -4.85411000
H        6.97380000       3.15748000       0.31634000
H        7.00744000       0.00000000       2.64379000
H       -3.15890000       6.97522000       0.31634000
H       -0.00142000       7.00887000       2.64379000
H       -0.00142000      -2.65757000       6.61036000
H        3.15606000       6.97522000       0.31634000
H       -6.97665000      -3.15748000       0.31634000
H        2.14921000      -5.36047000      -4.85411000
H       -6.97665000       3.15748000       0.31634000
H        5.35905000       2.15063000      -4.85411000
H       -2.15206000      -5.36047000      -4.85411000
H        3.15606000      -6.97522000       0.31634000
H       -0.00142000      -7.00887000       2.64379000
H       -3.15890000      -6.97522000       0.31634000
H       -0.00142000       2.65757000       6.61036000
H        2.14921000       5.36047000      -4.85411000
