145
Properties=species:S:1:pos:R:3 pbc="F F F"
Cs      -0.04993600       0.03236600       0.07748800
Al      -3.35119000       1.55571000       5.53885000
Si       3.75118000      -3.34888000       1.55759000
Si      -3.75433000       3.35035000      -1.55237000
Si       5.53467000       1.55571000       3.35222000
Si      -5.53782000      -1.55425000       3.35222000
Si       3.34803000      -1.55425000      -5.53364000
Si       1.55340000       3.35035000       3.75536000
Si      -1.55656000      -3.34888000      -3.75015000
Si       3.75118000      -3.34888000      -1.55237000
Si       3.34803000       1.55571000      -5.53364000
Si      -3.75433000       3.35035000       1.55759000
Si       5.53467000       1.55571000      -3.34700000
Si      -5.53782000       1.55571000      -3.34700000
Si      -3.35119000      -1.55425000       5.53885000
Si       1.55340000       3.35035000      -3.75015000
Si      -3.75433000      -3.34888000       1.55759000
Si      -1.55656000      -3.34888000       3.75536000
Si       5.53467000      -1.55425000       3.35222000
Si       3.34803000       1.55571000       5.53885000
Si      -5.53782000       1.55571000       3.35222000
Si      -3.35119000      -1.55425000      -5.53364000
Si       1.55340000      -3.34888000       3.75536000
Si       3.75118000       3.35035000      -1.55237000
Si      -1.55656000       3.35035000      -3.75015000
Si      -3.35119000       1.55571000      -5.53364000
Si      -3.75433000      -3.34888000      -1.55237000
Si       5.53467000      -1.55425000      -3.34700000
Si      -5.53782000      -1.55425000      -3.34700000
Si       1.55340000      -3.34888000      -3.75015000
Si       3.34803000      -1.55425000       5.53885000
Si       3.75118000       3.35035000       1.55759000
Si      -1.55656000       3.35035000       3.75536000
O       -6.92931000       2.36200000       3.44140000
O        1.70388000       4.74184000      -4.54529000
O        2.35969000       3.43952000      -2.35866000
O       -3.44966000      -3.06835000       0.00261000
O       -4.54947000      -4.74037000       1.70807000
O       -2.36284000      -3.43806000       2.36387000
O       -0.00158000      -3.06835000       3.45069000
O       -1.70704000      -4.74037000       4.55050000
O       -2.15291000      -2.15060000      -4.64189000
O       -4.74268000      -1.70473000       4.74371000
O       -4.64608000      -2.15060000       2.15394000
O       -2.36284000      -3.43806000      -2.35866000
O        4.54632000      -4.74037000      -1.70285000
O        4.64292000      -2.15060000      -2.14872000
O        2.35969000      -3.43806000      -2.35866000
O        4.73953000       1.70619000      -4.73850000
O       -5.84250000       0.00073000       3.07169000
O       -3.07066000       0.00073000       5.84353000
O       -4.74268000       1.70619000       4.74371000
O        3.44650000      -3.06835000       0.00261000
O       -2.15291000       2.15206000       4.64711000
O       -3.44037000       2.36200000       6.93034000
O        4.54632000      -4.74037000       1.70807000
O        4.64292000      -2.15060000       2.15394000
O       -6.92931000       2.36200000      -3.43618000
O       -2.15291000      -2.15060000       4.64711000
O        1.70388000      -4.74037000      -4.54529000
O        3.06751000       0.00073000      -5.83831000
O        4.73953000      -1.70473000      -4.73850000
O        2.14975000      -2.15060000      -4.64189000
O        3.43721000      -2.36053000      -6.92513000
O       -0.00158000       3.06982000       3.45069000
O        1.70388000       4.74184000       4.55050000
O        2.14975000       2.15206000       4.64711000
O        2.35969000       3.43952000       2.36387000
O       -0.00158000      -3.06835000      -3.44547000
O       -1.70704000      -4.74037000      -4.54529000
O        3.43721000      -2.36053000       6.93034000
O        4.54632000       4.74184000       1.70807000
O       -1.70704000       4.74184000       4.55050000
O        2.35969000      -3.43806000       2.36387000
O       -3.44966000       3.06982000       0.00261000
O       -4.54947000       4.74184000      -1.70285000
O       -4.64608000       2.15206000      -2.14872000
O       -2.36284000       3.43952000      -2.35866000
O        5.83934000       0.00073000       3.07169000
O        4.73953000       1.70619000       4.74371000
O        4.64292000       2.15206000       2.15394000
O        6.92616000       2.36200000       3.44140000
O       -6.92931000      -2.36053000       3.44140000
O        1.70388000      -4.74037000       4.55050000
O        2.14975000      -2.15060000       4.64711000
O        3.44650000       3.06982000       0.00261000
O       -3.07066000       0.00073000      -5.83831000
O       -4.74268000      -1.70473000      -4.73850000
O       -3.44037000      -2.36053000      -6.92513000
O        4.73953000      -1.70473000       4.74371000
O        6.92616000      -2.36053000       3.44140000
O        3.06751000       0.00073000       5.84353000
O        3.43721000       2.36200000       6.93034000
O       -3.44037000      -2.36053000       6.93034000
O       -0.00158000       3.06982000      -3.44547000
O        2.14975000       2.15206000      -4.64189000
O        3.43721000       2.36200000      -6.92513000
O       -4.54947000       4.74184000       1.70807000
O       -4.64608000       2.15206000       2.15394000
O       -2.36284000       3.43952000       2.36387000
O        5.83934000       0.00073000      -3.06648000
O        4.64292000       2.15206000      -2.14872000
O        6.92616000       2.36200000      -3.43618000
O       -5.84250000       0.00073000      -3.06648000
O       -4.74268000       1.70619000      -4.73850000
O        4.54632000       4.74184000      -1.70285000
O       -1.70704000       4.74184000      -4.54529000
O       -2.15291000       2.15206000      -4.64189000
O       -3.44037000       2.36200000      -6.92513000
O       -4.54947000      -4.74037000      -1.70285000
O       -4.64608000      -2.15060000      -2.14872000
O        6.92616000      -2.36053000      -3.43618000
O       -6.92931000      -2.36053000      -3.43618000
H       -7.77595000       2.85257000       3.49565000
H        1.79550000       5.58899000      -5.02937000
H       -5.03356000      -5.58753000       1.79968000
H       -1.79865000      -5.58753000       5.03459000
H        5.03040000      -5.58753000      -1.79447000
H       -3.49462000       2.85257000       7.77698000
H        5.03040000      -5.58753000       1.79968000
H       -7.77595000       2.85257000      -3.49044000
H        1.79550000      -5.58753000      -5.02937000
H        3.49147000      -2.85111000      -7.77176000
H        1.79550000       5.58899000       5.03459000
H       -1.79865000      -5.58753000      -5.02937000
H        3.49147000      -2.85111000       7.77698000
H        5.03040000       5.58899000       1.79968000
H       -1.79865000       5.58899000       5.03459000
H       -5.03356000       5.58899000      -1.79447000
H        7.77279000       2.85257000       3.49565000
H       -7.77595000      -2.85111000       3.49565000
H        1.79550000      -5.58753000       5.03459000
H       -3.49462000      -2.85111000      -7.77176000
H        7.77279000      -2.85111000       3.49565000
H        3.49147000       2.85257000       7.77698000
H       -3.49462000      -2.85111000       7.77698000
H        3.49147000       2.85257000      -7.77176000
H       -5.03356000       5.58899000       1.79968000
H        7.77279000       2.85257000      -3.49044000
H        5.03040000       5.58899000      -1.79447000
H       -1.79865000       5.58899000      -5.02937000
H       -3.49462000       2.85257000      -7.77176000
H       -5.03356000      -5.58753000      -1.79447000
H        7.77279000      -2.85111000      -3.49044000
H       -7.77595000      -2.85111000      -3.49044000
