109
Properties=species:S:1:pos:R:3 pbc="F F F"
Cs      -0.01279500      -0.00011400       0.03292700
Al      -2.16929000       0.00000000       4.06705000
Si      -1.50241000       3.75511000      -2.92872000
Si       2.30605000       4.56143000      -0.09376000
Si      -4.56276000      -2.30739000      -0.09376000
Si      -4.50941000       0.00000000       1.97090000
Si       1.49974000      -3.75511000      -2.92872000
Si      -2.30872000      -4.56142000      -0.09376000
Si      -0.00134000       2.16795000       4.06705000
Si       1.49974000       3.75511000      -2.92872000
Si      -2.30872000       4.56143000      -0.09376000
Si      -0.00134100       4.50808000       1.97090000
Si      -0.00134000      -2.16795000       4.06705000
Si       3.75378000       1.50108000      -2.92872000
Si      -1.50241000      -3.75511000      -2.92872000
Si       2.30605000      -4.56142000      -0.09376000
Si      -0.00134000      -4.50807000       1.97090000
Si      -3.75645000      -1.50107000      -2.92872000
Si      -4.56276000       2.30739000      -0.09376000
Si      -3.75645000       1.50108000      -2.92872000
Si       4.56009000      -2.30739000      -0.09376000
Si       2.16661000       0.00000000       4.06705000
Si       3.75378000      -1.50107000      -2.92872000
Si       4.56009000       2.30739000      -0.09376000
Si       4.50674000       0.00000000       1.97090000
O       -4.75434000       1.90484000      -4.12571000
O        4.51159000      -1.54957000      -1.51124000
O        4.15632000      -1.30950000       1.10323000
O        6.06116000      -2.83604000       0.16110000
O        3.57190000       0.00000000       3.28243000
O        2.47095000       0.00000000       5.64776000
O        4.75166000      -1.90484000      -4.12571000
O       -1.31084000       4.15766000       1.10323000
O       -6.06384000       0.00000000       2.38898000
O        1.54824000      -4.51292000      -1.51124000
O       -4.15900000       1.30950000       1.10323000
O       -3.57457000       0.00000000       3.28243000
O       -2.47362000       0.00000000       5.64776000
O       -1.55091000       4.51293000      -1.51124000
O       -1.31569000      -1.31435000       3.69478000
O       -1.31569000       1.31435000       3.69478000
O       -1.90617000       4.75300000      -4.12571000
O       -0.00134000       3.22646000      -3.18358000
O       -4.75434000      -1.90484000      -4.12571000
O       -3.22780000       0.00000000      -3.18358000
O        4.15632000       1.30950000       1.10323000
O        6.06116000       2.83604000       0.16110000
O        6.06116000       0.00000000       2.38898000
O       -2.83737000       6.06250000       0.16110000
O       -3.57336000       3.57203000      -0.11953000
O       -0.00133900       6.06250000       2.38898000
O       -0.00134000      -3.57324000       3.28243000
O       -0.00134000      -2.47229000       5.64776000
O       -2.49181000       2.49048000      -2.90295000
O        1.54824000       4.51293000      -1.51124000
O        1.30816000       4.15766000       1.10323000
O        2.83470000       6.06250000       0.16110000
O        3.57069000       3.57203000      -0.11953000
O       -4.51426000      -1.54957000      -1.51124000
O       -4.15900000      -1.30950000       1.10323000
O       -6.06384000      -2.83604000       0.16110000
O       -3.57336000      -3.57202000      -0.11953000
O        1.90350000      -4.75300000      -4.12571000
O       -4.51426000       1.54958000      -1.51124000
O       -6.06384000       2.83604000       0.16110000
O        1.31301000      -1.31435000       3.69478000
O        4.51159000       1.54958000      -1.51124000
O        4.75166000       1.90484000      -4.12571000
O        3.22513000       0.00000000      -3.18358000
O       -1.90617000      -4.75300000      -4.12571000
O       -2.49181000      -2.49047000      -2.90295000
O        1.30816000      -4.15766000       1.10323000
O        2.83470000      -6.06250000       0.16110000
O        3.57069000      -3.57202000      -0.11953000
O       -0.00134000      -6.06250000       2.38898000
O       -0.00134000      -3.22646000      -3.18358000
O        2.48914000      -2.49047000      -2.90295000
O       -1.55091000      -4.51292000      -1.51124000
O       -1.31084000      -4.15766000       1.10323000
O       -2.83737000      -6.06250000       0.16110000
O       -0.00134000       3.57324000       3.28243000
O       -0.00134000       2.47229000       5.64776000
O        1.31301000       1.31435000       3.69478000
O        1.90350000       4.75300000      -4.12571000
O        2.48914000       2.49048000      -2.90295000
H       -5.36181000       2.15063000      -4.85438000
H        6.97388000      -3.15748000       0.31607000
H        2.65623000       0.00000000       6.61009000
H        5.35913000      -2.15063000      -4.85438000
H       -7.01020000       0.00000000       2.64352000
H       -2.65890000       0.00000000       6.61009000
H       -2.15197000       5.36047000      -4.85438000
H       -5.36181000      -2.15063000      -4.85438000
H        6.97388000       3.15748000       0.31607000
H        7.00753000       0.00000000       2.64352000
H       -3.15882000       6.97522000       0.31607000
H       -0.00134000       7.00887000       2.64352000
H       -0.00134000      -2.65757000       6.61009000
H        3.15614000       6.97522000       0.31607000
H       -6.97656000      -3.15748000       0.31607000
H        2.14929000      -5.36047000      -4.85438000
H       -6.97656000       3.15748000       0.31607000
H        5.35913000       2.15063000      -4.85438000
H       -2.15197000      -5.36047000      -4.85438000
H        3.15614000      -6.97522000       0.31607000
H       -0.00134000      -7.00887000       2.64352000
H       -3.15882000      -6.97522000       0.31607000
H       -0.00134000       2.65757000       6.61009000
H        2.14929000       5.36047000      -4.85438000
