109
Properties=species:S:1:pos:R:3 pbc="F F F"
Sr      -0.21761700       0.12269700       0.17300800
Si      -1.52890000      -4.42277000       1.26370900
Al      -4.59404000      -0.88793000      -1.25244000
Si      -3.06793000      -3.53123000      -1.25244000
Si      -3.06620000      -0.00683000      -3.74331000
Si      -1.54096000      -2.64864000      -3.74331000
Si      -3.07051000       0.00360000       3.74054000
Si       1.52504000      -4.42277000       1.26371000
Si      -1.53407000      -2.65759000       3.74054000
Si      -3.06965000       3.53546000       1.26371000
Si       3.06406000      -3.53123000      -1.25244000
Si      -1.52804000       4.42252000      -1.25244000
Si       1.53709000      -2.64864000      -3.74331000
Si      -1.52718000       2.65883000      -3.74331000
Si       1.53020000      -2.65759000       3.74054000
Si      -1.53837000       2.65734000       3.74054000
Si       4.59275000       0.89067000       1.26371000
Si       4.59017000      -0.88793000      -1.25244000
Si       3.06234000      -0.00683000      -3.74331000
Si       3.06664000       0.00360000       3.74054000
Si       3.06578000       3.53546000       1.26371000
Si       1.52418000       4.42252000      -1.25244000
Si       1.52331000       2.65883000      -3.74331000
Al       1.53450000       2.65734000       3.74054000
Si      -4.59662000       0.89067000       1.26371000
O        1.88999000       1.09342000       3.59451000
O        3.57879000      -0.03069000       5.26539000
O        2.49252000       3.51459000       2.76890000
O        4.30526000       4.55819000       1.17665000
O        1.90377000       4.00955000       0.25556000
O        2.50629000       5.59583000      -1.75511000
O        1.68514000       3.14187000      -2.21565000
O        4.27255000      -2.46676000      -1.30018000
O       -2.51188000      -1.44701000       3.32773000
O       -3.58265000      -0.03069000       5.26539000
O       -1.89386000       1.09342000       3.59451000
O       -0.00193000      -4.11267000       0.85933000
O       -1.79746000      -3.91587000       2.76890000
O       -4.42619000      -0.35271000       0.25556000
O       -1.79488000      -6.00755000       1.17665000
O       -2.52049000      -3.65348000       0.25556000
O       -6.10121000      -0.62405000      -1.75511000
O       -3.56544000      -0.10821000      -2.21565000
O        6.09734000      -0.62405000      -1.75511000
O        3.56157000      -0.10821000      -2.21565000
O        2.50543000       3.51906000      -4.68687000
O        1.76088000       3.11802000       5.26539000
O       -6.10207000       1.45272000       1.17665000
O       -2.51016000       5.59583000      -1.75511000
O       -1.68900000       3.14187000      -2.21565000
O       -0.00193000       4.93687000      -1.30018000
O        1.79101000      -3.92929000      -4.68687000
O        2.49080000      -1.43806000      -4.21509000
O       -4.27642000      -2.46676000      -1.30018000
O       -3.59298000      -4.96842000      -1.75511000
O       -1.87837000      -3.03030000      -2.21565000
O       -4.30224000       0.41359000      -4.68687000
O       -2.49467000      -1.43806000      -4.21509000
O       -1.90247000       1.09939000      -3.85845000
O       -1.79488000      -3.92929000      -4.68687000
O       -0.00280000      -2.19393000      -3.85845000
O       -4.29191000       0.40465000       2.76890000
O        1.79359000      -3.91587000       2.76890000
O        4.29837000       0.41359000      -4.68687000
O        1.89946000       1.09790000      -3.85845000
O       -2.50930000       3.51906000      -4.68687000
O       -0.00193000       2.87948000      -4.21509000
O        2.50715000      -1.44850000       3.32773000
O        1.81597000      -3.08397000       5.26539000
O       -0.00107000       2.89886000       3.32773000
O       -1.76475000       3.11802000       5.26539000
O        3.56071000       2.05801000       0.85933000
O        4.28804000       0.40465000       2.76890000
O        6.09820000       1.45272000       1.17665000
O        4.42232000      -0.35271000       0.25556000
O        1.79101000      -6.00755000       1.17665000
O        2.51662000      -3.65348000       0.25556000
O       -0.00193000      -2.18349000       3.59451000
O       -1.81984000      -3.08397000       5.26539000
O       -3.56458000       2.05801000       0.85933000
O       -2.49639000       3.51459000       2.76890000
O       -4.30913000       4.55819000       1.17665000
O       -1.90763000       4.00955000       0.25556000
O        3.58911000      -4.96842000      -1.75511000
O        1.87450000      -3.03030000      -2.21565000
H        3.89073000      -0.05157000       6.19418000
H        5.06005000       5.18099000       1.12364000
H        3.10390000       6.30977000      -2.06098000
H       -3.89460000      -0.05157000       6.19418000
H       -1.95684000      -6.97262000       1.12364000
H       -7.01830000      -0.46348000      -2.06098000
H        7.01443000      -0.46348000      -2.06098000
H        3.10292000       4.04240000      -5.26090000
H        1.89877000       3.39862000       6.19418000
H       -7.01883000       1.79499000       1.12364000
H       -3.10776000       6.30977000      -2.06098000
H        1.94549000      -4.70841000      -5.26090000
H       -3.91247000      -5.84294000      -2.06098000
H       -5.05421000       0.66937000      -5.26090000
H       -1.94936000      -4.70841000      -5.26090000
H        5.05035000       0.66937000      -5.26090000
H       -3.10679000       4.04240000      -5.26090000
H        1.99003000      -3.34369000       6.19418000
H       -1.90264000       3.39862000       6.19418000
H        7.01496000       1.79499000       1.12364000
H        1.95297000      -6.97262000       1.12364000
H       -1.99390000      -3.34369000       6.19418000
H       -5.06392000       5.18099000       1.12364000
H        3.90861000      -5.84294000      -2.06098000
