109
Properties=species:S:1:pos:R:3 pbc="F F F"
Na      -0.00974100       0.02424200      -0.01568100
Si      -2.16894000       0.00247000       4.06273000
Al      -1.50206000       3.75758000      -2.93305000
Si       2.30640000       4.56389000      -0.09808000
Si      -4.56241000      -2.30492000      -0.09808000
Si      -4.50906000       0.00246300       1.96657000
Si       1.50009000      -3.75265000      -2.93305000
Si      -2.30837000      -4.55896000      -0.09808000
Si      -0.00099000       2.17042000       4.06273000
Si       1.50009000       3.75758000      -2.93305000
Si      -2.30837000       4.56389000      -0.09808000
Si      -0.00098900       4.51054000       1.96657000
Si      -0.00099000      -2.16548000       4.06273000
Si       3.75413000       1.50354000      -2.93305000
Si      -1.50206000      -3.75265000      -2.93305000
Si       2.30640000      -4.55896000      -0.09808000
Si      -0.00099000      -4.50561000       1.96657000
Si      -3.75610000      -1.49861000      -2.93305000
Si      -4.56241000       2.30986000      -0.09808000
Si      -3.75610000       1.50354000      -2.93305000
Si       4.56044000      -2.30492000      -0.09808000
Si       2.16696000       0.00247000       4.06273000
Si       3.75413000      -1.49861000      -2.93305000
Si       4.56044000       2.30986000      -0.09808000
Si       4.50709000       0.00247000       1.96657000
O       -4.75399000       1.90730000      -4.13003000
O        4.51194000      -1.54711000      -1.51556000
O        4.15668000      -1.30703000       1.09890000
O        6.06151000      -2.83357000       0.15678000
O        3.57225000       0.00247000       3.27810000
O        2.47130000       0.00247000       5.64344000
O        4.75201000      -1.90237000      -4.13003000
O       -1.31049000       4.16013000       1.09890000
O       -6.06349000       0.00247600       2.38466000
O        1.54859000      -4.51046000      -1.51556000
O       -4.15865000       1.31197000       1.09890000
O       -3.57422000       0.00247100       3.27810000
O       -2.47327000       0.00247000       5.64344000
O       -1.55056000       4.51539000      -1.51556000
O       -1.31534000      -1.31188000       3.69046000
O       -1.31534000       1.31682000       3.69046000
O       -1.90582000       4.75547000      -4.13003000
O       -0.00099000       3.22893000      -3.18791000
O       -4.75399000      -1.90237000      -4.13003000
O       -3.22745000       0.00247000      -3.18791000
O        4.15668000       1.31197000       1.09890000
O        6.06151000       2.83850000       0.15678000
O        6.06151000       0.00247000       2.38466000
O       -2.83702000       6.06497000       0.15678000
O       -3.57301000       3.57449000      -0.12385000
O       -0.00099100       6.06497000       2.38466000
O       -0.00099000      -3.57077000       3.27810000
O       -0.00099000      -2.46982000       5.64344000
O       -2.49146000       2.49294000      -2.90727000
O        1.54859000       4.51539000      -1.51556000
O        1.30851000       4.16013000       1.09890000
O        2.83505000       6.06497000       0.15678000
O        3.57104000       3.57449000      -0.12385000
O       -4.51391000      -1.54711000      -1.51556000
O       -4.15865000      -1.30703000       1.09890000
O       -6.06349000      -2.83357000       0.15678000
O       -3.57301000      -3.56956000      -0.12385000
O        1.90385000      -4.75053000      -4.13003000
O       -4.51391000       1.55204000      -1.51556000
O       -6.06349000       2.83850000       0.15678000
O        1.31336000      -1.31188000       3.69046000
O        4.51194000       1.55204000      -1.51556000
O        4.75201000       1.90730000      -4.13003000
O        3.22548000       0.00247000      -3.18791000
O       -1.90582000      -4.75053000      -4.13003000
O       -2.49146000      -2.48801000      -2.90727000
O        1.30851000      -4.15520000       1.09890000
O        2.83505000      -6.06003000       0.15678000
O        3.57104000      -3.56956000      -0.12385000
O       -0.00099000      -6.06003000       2.38466000
O       -0.00099000      -3.22400000      -3.18791000
O        2.48949000      -2.48801000      -2.90727000
O       -1.55056000      -4.51046000      -1.51556000
O       -1.31049000      -4.15520000       1.09890000
O       -2.83702000      -6.06003000       0.15678000
O       -0.00099000       3.57570000       3.27810000
O       -0.00099000       2.47475000       5.64344000
O        1.31336000       1.31682000       3.69046000
O        1.90385000       4.75547000      -4.13003000
O        2.48949000       2.49294000      -2.90727000
H       -5.36146000       2.15310000      -4.85870000
H        6.97423000      -3.15501000       0.31174000
H        2.65658000       0.00247000       6.60576000
H        5.35948000      -2.14816000      -4.85870000
H       -7.00985000       0.00246900       2.63920000
H       -2.65855000       0.00247000       6.60576000
H       -2.15162000       5.36294000      -4.85870000
H       -5.36146000      -2.14816000      -4.85870000
H        6.97423000       3.15995000       0.31174000
H        7.00788000       0.00247000       2.63920000
H       -3.15847000       6.97769000       0.31174000
H       -0.00099000       7.01133000       2.63920000
H       -0.00099000      -2.65510000       6.60576000
H        3.15649000       6.97769000       0.31174000
H       -6.97621000      -3.15501000       0.31174000
H        2.14964000      -5.35800000      -4.85870000
H       -6.97621000       3.15995000       0.31174000
H        5.35948000       2.15310000      -4.85870000
H       -2.15162000      -5.35800000      -4.85870000
H        3.15649000      -6.97275000       0.31174000
H       -0.00099000      -7.00640000       2.63920000
H       -3.15847000      -6.97275000       0.31174000
H       -0.00099000       2.66003000       6.60576000
H        2.14964000       5.36294000      -4.85870000
