145
Properties=species:S:1:pos:R:3 pbc="F F F"
Sr       0.03394400      -0.00137100       0.03365500
Si      -3.34534000       1.55498000       5.54052000
Si       3.75703000      -3.34961000       1.55925000
Si      -3.74848000       3.34961000      -1.55071000
Al       5.54052000       1.55498000       3.35388000
Si      -5.53197000      -1.55498000       3.35388000
Si       3.35388000      -1.55498000      -5.53197000
Si       1.55925000       3.34961000       3.75703000
Si      -1.55071000      -3.34961000      -3.74848000
Si       3.75703000      -3.34961000      -1.55071000
Si       3.35388000       1.55498000      -5.53197000
Si      -3.74848000       3.34961000       1.55925000
Si       5.54052000       1.55498000      -3.34534000
Si      -5.53197000       1.55498000      -3.34534000
Si      -3.34534000      -1.55498000       5.54052000
Si       1.55925000       3.34961000      -3.74848000
Si      -3.74848000      -3.34961000       1.55925000
Si      -1.55071000      -3.34961000       3.75703000
Si       5.54052000      -1.55498000       3.35388000
Si       3.35388000       1.55498000       5.54052000
Si      -5.53197000       1.55498000       3.35388000
Si      -3.34534000      -1.55498000      -5.53197000
Si       1.55925000      -3.34961000       3.75703000
Si       3.75703000       3.34961000      -1.55071000
Si      -1.55071000       3.34961000      -3.74848000
Si      -3.34534000       1.55498000      -5.53197000
Si      -3.74848000      -3.34961000      -1.55071000
Si       5.54052000      -1.55498000      -3.34534000
Si      -5.53197000      -1.55498000      -3.34534000
Si       1.55925000      -3.34961000      -3.74848000
Al       3.35388000      -1.55498000       5.54052000
Si       3.75703000       3.34961000       1.55925000
Si      -1.55071000       3.34961000       3.75703000
O       -6.92346000       2.36126000       3.44306000
O        1.70973000       4.74111000      -4.54362000
O        2.36554000       3.43879000      -2.35699000
O       -3.44381000      -3.06909000       0.00427000
O       -4.54362000      -4.74111000       1.70973000
O       -2.35699000      -3.43879000       2.36554000
O        0.00427000      -3.06909000       3.45235000
O       -1.70119000      -4.74111000       4.55217000
O       -2.14706000      -2.15133000      -4.64023000
O       -4.73683000      -1.70546000       4.74538000
O       -4.64023000      -2.15133000       2.15560000
O       -2.35699000      -3.43879000      -2.35699000
O        4.55217000      -4.74111000      -1.70119000
O        4.64877000      -2.15133000      -2.14706000
O        2.36554000      -3.43879000      -2.35699000
O        4.74538000       1.70546000      -4.73683000
O       -5.83665000       0.00000000       3.07336000
O       -3.06481000       0.00000000       5.84519000
O       -4.73683000       1.70546000       4.74538000
O        3.45235000      -3.06909000       0.00427000
O       -2.14706000       2.15133000       4.64877000
O       -3.43452000       2.36126000       6.93201000
O        4.55217000      -4.74111000       1.70973000
O        4.64877000      -2.15133000       2.15560000
O       -6.92346000       2.36126000      -3.43452000
O       -2.14706000      -2.15133000       4.64877000
O        1.70973000      -4.74111000      -4.54362000
O        3.07336000       0.00000000      -5.83665000
O        4.74538000      -1.70546000      -4.73683000
O        2.15560000      -2.15133000      -4.64023000
O        3.44306000      -2.36126000      -6.92346000
O        0.00427000       3.06909000       3.45235000
O        1.70973000       4.74111000       4.55217000
O        2.15560000       2.15133000       4.64877000
O        2.36554000       3.43879000       2.36554000
O        0.00427000      -3.06909000      -3.44381000
O       -1.70119000      -4.74111000      -4.54362000
O        3.44306000      -2.36126000       6.93201000
O        4.55217000       4.74111000       1.70973000
O       -1.70119000       4.74111000       4.55217000
O        2.36554000      -3.43879000       2.36554000
O       -3.44381000       3.06909000       0.00427000
O       -4.54362000       4.74111000      -1.70119000
O       -4.64023000       2.15133000      -2.14706000
O       -2.35699000       3.43879000      -2.35699000
O        5.84519000       0.00000000       3.07336000
O        4.74538000       1.70546000       4.74538000
O        4.64877000       2.15133000       2.15560000
O        6.93201000       2.36126000       3.44306000
O       -6.92346000      -2.36126000       3.44306000
O        1.70973000      -4.74111000       4.55217000
O        2.15560000      -2.15133000       4.64877000
O        3.45235000       3.06909000       0.00427000
O       -3.06481000       0.00000000      -5.83665000
O       -4.73683000      -1.70546000      -4.73683000
O       -3.43452000      -2.36126000      -6.92346000
O        4.74538000      -1.70546000       4.74538000
O        6.93201000      -2.36126000       3.44306000
O        3.07336000       0.00000000       5.84519000
O        3.44306000       2.36126000       6.93201000
O       -3.43452000      -2.36126000       6.93201000
O        0.00427000       3.06909000      -3.44381000
O        2.15560000       2.15133000      -4.64023000
O        3.44306000       2.36126000      -6.92346000
O       -4.54362000       4.74111000       1.70973000
O       -4.64023000       2.15133000       2.15560000
O       -2.35699000       3.43879000       2.36554000
O        5.84519000       0.00000000      -3.06481000
O        4.64877000       2.15133000      -2.14706000
O        6.93201000       2.36126000      -3.43452000
O       -5.83665000       0.00000000      -3.06481000
O       -4.73683000       1.70546000      -4.73683000
O        4.55217000       4.74111000      -1.70119000
O       -1.70119000       4.74111000      -4.54362000
O       -2.14706000       2.15133000      -4.64023000
O       -3.43452000       2.36126000      -6.92346000
O       -4.54362000      -4.74111000      -1.70119000
O       -4.64023000      -2.15133000      -2.14706000
O        6.93201000      -2.36126000      -3.43452000
O       -6.92346000      -2.36126000      -3.43452000
H       -7.77010000       2.85184000       3.49732000
H        1.80135000       5.58826000      -5.02771000
H       -5.02771000      -5.58826000       1.80135000
H       -1.79280000      -5.58826000       5.03625000
H        5.03625000      -5.58826000      -1.79280000
H       -3.48877000       2.85184000       7.77864000
H        5.03625000      -5.58826000       1.80135000
H       -7.77010000       2.85184000      -3.48877000
H        1.80135000      -5.58826000      -5.02771000
H        3.49732000      -2.85184000      -7.77010000
H        1.80135000       5.58826000       5.03625000
H       -1.79280000      -5.58826000      -5.02771000
H        3.49732000      -2.85184000       7.77864000
H        5.03625000       5.58826000       1.80135000
H       -1.79280000       5.58826000       5.03625000
H       -5.02771000       5.58826000      -1.79280000
H        7.77864000       2.85184000       3.49732000
H       -7.77010000      -2.85184000       3.49732000
H        1.80135000      -5.58826000       5.03625000
H       -3.48877000      -2.85184000      -7.77010000
H        7.77864000      -2.85184000       3.49732000
H        3.49732000       2.85184000       7.77864000
H       -3.48877000      -2.85184000       7.77864000
H        3.49732000       2.85184000      -7.77010000
H       -5.02771000       5.58826000       1.80135000
H        7.77864000       2.85184000      -3.48877000
H        5.03625000       5.58826000      -1.79280000
H       -1.79280000       5.58826000      -5.02771000
H       -3.48877000       2.85184000      -7.77010000
H       -5.02771000      -5.58826000      -1.79280000
H        7.77864000      -2.85184000      -3.48877000
H       -7.77010000      -2.85184000      -3.48877000
