109
Properties=species:S:1:pos:R:3 pbc="F F F"
Na      -0.00906300      -0.02933400       0.00796000
Al      -1.52797000      -4.42679000       1.26295000
Si      -4.59310000      -0.89196000      -1.25320000
Si      -3.06699000      -3.53526000      -1.25320000
Si      -3.06527000      -0.01086000      -3.74407000
Si      -1.54002000      -2.65267000      -3.74407000
Si      -3.06958000      -0.00042000       3.73978000
Si       1.52597000      -4.42679000       1.26295000
Si      -1.53314000      -2.66161000       3.73978000
Si      -3.06872000       3.53143000       1.26295000
Si       3.06499000      -3.53526000      -1.25320000
Si      -1.52711000       4.41850000      -1.25320000
Si       1.53802000      -2.65267000      -3.74407000
Si      -1.52625000       2.65480000      -3.74407000
Si       1.53113000      -2.66161000       3.73978000
Si      -1.53744000       2.65331000       3.73978000
Si       4.59368000       0.88664000       1.26295000
Si       4.59110000      -0.89196000      -1.25320000
Si       3.06327000      -0.01086000      -3.74407000
Si       3.06757000      -0.00042000       3.73978000
Si       3.06671000       3.53143000       1.26295000
Si       1.52511000       4.41850000      -1.25320000
Si       1.52425000       2.65480000      -3.74407000
Si       1.53544000       2.65331000       3.73978000
Si      -4.59569000       0.88664000       1.26295000
O        1.89093000       1.08940000       3.59376000
O        3.57972000      -0.03471000       5.26464000
O        2.49345000       3.51056000       2.76815000
O        4.30619000       4.55416000       1.17590000
O        1.90470000       4.00553000       0.25481000
O        2.50722000       5.59180000      -1.75586000
O        1.68607000       3.13784000      -2.21641000
O        4.27348000      -2.47078000      -1.30094000
O       -2.51095000      -1.45103000       3.32698000
O       -3.58172000      -0.03471000       5.26464000
O       -1.89293000       1.08940000       3.59376000
O       -0.00100000      -4.11669000       0.85857000
O       -1.79653000      -3.91990000       2.76815000
O       -4.42526000      -0.35674000       0.25481000
O       -1.79395000      -6.01158000       1.17590000
O       -2.51956000      -3.65751000       0.25481000
O       -6.10028000      -0.62808000      -1.75586000
O       -3.56451000      -0.11224000      -2.21641000
O        6.09827000      -0.62808000      -1.75586000
O        3.56250000      -0.11224000      -2.21641000
O        2.50636000       3.51503000      -4.68763000
O        1.76181000       3.11399000       5.26464000
O       -6.10114000       1.44870000       1.17590000
O       -2.50923000       5.59180000      -1.75586000
O       -1.68807000       3.13784000      -2.21641000
O       -0.00100000       4.93284000      -1.30094000
O        1.79194000      -3.93332000      -4.68763000
O        2.49173000      -1.44209000      -4.21585000
O       -4.27549000      -2.47078000      -1.30094000
O       -3.59205000      -4.97245000      -1.75586000
O       -1.87744000      -3.03433000      -2.21641000
O       -4.30131000       0.40957000      -4.68763000
O       -2.49374000      -1.44209000      -4.21585000
O       -1.90154000       1.09536000      -3.85921000
O       -1.79395000      -3.93332000      -4.68763000
O       -0.00186000      -2.19795000      -3.85921000
O       -4.29098000       0.40062000       2.76815000
O        1.79452000      -3.91990000       2.76815000
O        4.29930000       0.40957000      -4.68763000
O        1.90039000       1.09387000      -3.85921000
O       -2.50837000       3.51503000      -4.68763000
O       -0.00100000       2.87545000      -4.21585000
O        2.50808000      -1.45252000       3.32698000
O        1.81690000      -3.08800000       5.26464000
O       -0.00014000       2.89483000       3.32698000
O       -1.76382000       3.11399000       5.26464000
O        3.56164000       2.05399000       0.85857000
O        4.28897000       0.40062000       2.76815000
O        6.09913000       1.44870000       1.17590000
O        4.42325000      -0.35674000       0.25481000
O        1.79194000      -6.01158000       1.17590000
O        2.51755000      -3.65751000       0.25481000
O       -0.00100000      -2.18752000       3.59376000
O       -1.81891000      -3.08800000       5.26464000
O       -3.56365000       2.05399000       0.85857000
O       -2.49546000       3.51056000       2.76815000
O       -4.30820000       4.55416000       1.17590000
O       -1.90670000       4.00553000       0.25481000
O        3.59005000      -4.97245000      -1.75586000
O        1.87543000      -3.03433000      -2.21641000
H        3.89167000      -0.05560000       6.19343000
H        5.06098000       5.17696000       1.12288000
H        3.10483000       6.30575000      -2.06173000
H       -3.89367000      -0.05560000       6.19343000
H       -1.95591000      -6.97665000       1.12288000
H       -7.01737000      -0.46751000      -2.06173000
H        7.01537000      -0.46751000      -2.06173000
H        3.10386000       4.03837000      -5.26166000
H        1.89970000       3.39459000       6.19343000
H       -7.01790000       1.79096000       1.12288000
H       -3.10683000       6.30575000      -2.06173000
H        1.94642000      -4.71243000      -5.26166000
H       -3.91154000      -5.84696000      -2.06173000
H       -5.05328000       0.66534000      -5.26166000
H       -1.94842000      -4.71243000      -5.26166000
H        5.05128000       0.66534000      -5.26166000
H       -3.10586000       4.03837000      -5.26166000
H        1.99096000      -3.34771000       6.19343000
H       -1.90171000       3.39459000       6.19343000
H        7.01589000       1.79096000       1.12288000
H        1.95390000      -6.97665000       1.12288000
H       -1.99297000      -3.34771000       6.19343000
H       -5.06299000       5.17696000       1.12288000
H        3.90954000      -5.84696000      -2.06173000
