73
Properties=species:S:1:pos:R:3 pbc="F F F"
K        0.03547800       0.08579100      -0.04478400
Al       1.55122000       3.74622000      -1.54436000
Si       3.74410000      -1.54611000       1.54138000
Si      -1.54823000      -3.73899000       1.54138000
Si       1.55122000      -3.73899000       1.54138000
Si       1.55122000       3.74622000       1.54138000
Si      -1.54823000      -3.73899000      -1.54436000
Si       3.74410000      -1.54611000      -1.54436000
Si       1.55122000      -3.73899000      -1.54436000
Si       3.74410000       1.55334000       1.54138000
Si      -3.74111000       1.55334000      -1.54436000
Si       3.74410000       1.55334000      -1.54436000
Si      -1.54823000       3.74622000      -1.54436000
Si      -3.74111000       1.55334000       1.54138000
Si      -3.74111000      -1.54611000       1.54138000
Si      -1.54823000       3.74622000       1.54138000
Si      -3.74111000      -1.54611000      -1.54436000
O        4.94073000       2.07038000      -2.48999000
O       -2.41697000      -2.41486000      -1.83303000
O        0.00150000      -3.43913000      -1.85891000
O        2.06827000       4.94284000       2.48701000
O        2.41997000       2.42208000      -1.83303000
O        1.71516000       4.17358000      -0.00149000
O        2.41997000      -2.41486000       1.83005000
O        0.00150000       3.44636000      -1.85891000
O        2.06827000       4.94284000      -2.48999000
O        4.17147000      -1.71005000      -0.00149000
O        3.44424000       0.00361000       1.85593000
O       -1.71217000       4.17358000      -0.00149000
O       -2.06527000       4.94284000      -2.48999000
O       -2.41697000       2.42208000       1.83005000
O       -3.44125000       0.00361000       1.85593000
O       -4.93773000       2.07038000       2.48701000
O        4.94073000      -2.06316000       2.48701000
O       -2.41697000      -2.41486000       1.83005000
O       -1.71217000      -4.16636000      -0.00149000
O        0.00150000      -3.43913000       1.85593000
O       -2.06527000      -4.93562000       2.48701000
O        1.71516000      -4.16636000      -0.00149000
O        2.06827000      -4.93562000       2.48701000
O        2.41997000       2.42208000       1.83005000
O        0.00150000       3.44636000       1.85593000
O       -2.06527000      -4.93562000      -2.48999000
O       -4.16847000      -1.71005000      -0.00149000
O       -4.93773000      -2.06316000       2.48701000
O       -2.06527000       4.94284000       2.48701000
O       -4.93773000      -2.06316000      -2.48999000
O        2.41997000      -2.41486000      -1.83303000
O        3.44424000       0.00361000      -1.85891000
O        4.94073000      -2.06316000      -2.48999000
O        2.06827000      -4.93562000      -2.48999000
O        4.17147000       1.71728000      -0.00149000
O        4.94073000       2.07038000       2.48701000
O       -2.41697000       2.42208000      -1.83303000
O       -4.16847000       1.71728000      -0.00149000
O       -3.44125000       0.00361000      -1.85891000
O       -4.93773000       2.07038000      -2.48999000
H        5.66892000       2.38502000      -3.06544000
H        2.38291000       5.67103000       3.06246000
H        2.38291000       5.67103000      -3.06544000
H       -2.37991000       5.67103000      -3.06544000
H       -5.66592000       2.38502000       3.06246000
H        5.66892000      -2.37780000       3.06246000
H       -2.37991000      -5.66381000       3.06246000
H        2.38291000      -5.66381000       3.06246000
H       -2.37991000      -5.66381000      -3.06544000
H       -5.66592000      -2.37780000       3.06246000
H       -2.37991000       5.67103000       3.06246000
H       -5.66592000      -2.37780000      -3.06544000
H        5.66892000      -2.37780000      -3.06544000
H        2.38291000      -5.66381000      -3.06544000
H        5.66892000       2.38502000       3.06246000
H       -5.66592000       2.38502000      -3.06544000
