109
Properties=species:S:1:pos:R:3 pbc="F F F"
Sr      -0.04233200       0.06652800      -0.07847500
Si      -2.16887000       0.00194000       4.06267000
Si      -1.50199000       3.75705000      -2.93310000
Al       2.30647000       4.56336000      -0.09814000
Si      -4.56234000      -2.30545000      -0.09814000
Si      -4.50899000       0.00193300       1.96652000
Si       1.50016000      -3.75318000      -2.93310000
Si      -2.30830000      -4.55949000      -0.09814000
Si      -0.00092000       2.16989000       4.06267000
Si       1.50016000       3.75705000      -2.93310000
Si      -2.30830000       4.56336000      -0.09814000
Si      -0.00092000       4.51001000       1.96652000
Si      -0.00092000      -2.16601000       4.06267000
Si       3.75420000       1.50301000      -2.93310000
Si      -1.50199000      -3.75318000      -2.93310000
Si       2.30647000      -4.55949000      -0.09814000
Si      -0.00092000      -4.50614000       1.96652000
Al      -3.75603000      -1.49914000      -2.93310000
Si      -4.56234000       2.30933000      -0.09814000
Si      -3.75603000       1.50301000      -2.93310000
Si       4.56051000      -2.30545000      -0.09814000
Si       2.16703000       0.00194000       4.06267000
Si       3.75420000      -1.49914000      -2.93310000
Si       4.56051000       2.30933000      -0.09814000
Si       4.50716000       0.00194000       1.96652000
O       -4.75392000       1.90677000      -4.13009000
O        4.51201000      -1.54764000      -1.51562000
O        4.15675000      -1.30756000       1.09885000
O        6.06158000      -2.83410000       0.15672000
O        3.57232000       0.00194000       3.27805000
O        2.47137000       0.00194000       5.64338000
O        4.75208000      -1.90290000      -4.13009000
O       -1.31042000       4.15960000       1.09885000
O       -6.06342000       0.00194600       2.38460000
O        1.54866000      -4.51099000      -1.51562000
O       -4.15858000       1.31144100       1.09885000
O       -3.57415000       0.00194100       3.27805000
O       -2.47320000       0.00194000       5.64338000
O       -1.55049000       4.51486000      -1.51562000
O       -1.31527000      -1.31241000       3.69040000
O       -1.31527000       1.31629000       3.69040000
O       -1.90575000       4.75494000      -4.13009000
O       -0.00092000       3.22840000      -3.18796000
O       -4.75392000      -1.90290000      -4.13009000
O       -3.22738000       0.00194000      -3.18796000
O        4.15675000       1.31144000       1.09885000
O        6.06158000       2.83797000       0.15672000
O        6.06158000       0.00194000       2.38460000
O       -2.83695000       6.06444000       0.15672000
O       -3.57294000       3.57396000      -0.12391000
O       -0.00092000       6.06444000       2.38460000
O       -0.00092000      -3.57130000       3.27805000
O       -0.00092000      -2.47035000       5.64338000
O       -2.49139000       2.49241000      -2.90733000
O        1.54866000       4.51486000      -1.51562000
O        1.30858000       4.15960000       1.09885000
O        2.83512000       6.06444000       0.15672000
O        3.57111000       3.57396000      -0.12391000
O       -4.51384000      -1.54764000      -1.51562000
O       -4.15858000      -1.30756000       1.09885000
O       -6.06342000      -2.83410000       0.15672000
O       -3.57294000      -3.57009000      -0.12391000
O        1.90392000      -4.75106000      -4.13009000
O       -4.51384000       1.55151000      -1.51562000
O       -6.06342000       2.83797000       0.15672000
O        1.31343000      -1.31241000       3.69040000
O        4.51201000       1.55151000      -1.51562000
O        4.75208000       1.90677000      -4.13009000
O        3.22555000       0.00194000      -3.18796000
O       -1.90575000      -4.75106000      -4.13009000
O       -2.49139000      -2.48854000      -2.90733000
O        1.30858000      -4.15573000       1.09885000
O        2.83512000      -6.06056000       0.15672000
O        3.57111000      -3.57009000      -0.12391000
O       -0.00092000      -6.06056000       2.38460000
O       -0.00092000      -3.22453000      -3.18796000
O        2.48956000      -2.48854000      -2.90733000
O       -1.55049000      -4.51099000      -1.51562000
O       -1.31042000      -4.15573000       1.09885000
O       -2.83695000      -6.06056000       0.15672000
O       -0.00092000       3.57517000       3.27805000
O       -0.00092000       2.47422000       5.64338000
O        1.31343000       1.31629000       3.69040000
O        1.90392000       4.75494000      -4.13009000
O        2.48956000       2.49241000      -2.90733000
H       -5.36139000       2.15257000      -4.85876000
H        6.97430000      -3.15554000       0.31169000
H        2.65665000       0.00194000       6.60571000
H        5.35955000      -2.14869000      -4.85876000
H       -7.00978000       0.00193800       2.63914000
H       -2.65848000       0.00194000       6.60571000
H       -2.15155000       5.36241000      -4.85876000
H       -5.36139000      -2.14869000      -4.85876000
H        6.97430000       3.15942000       0.31169000
H        7.00795000       0.00194000       2.63914000
H       -3.15840000       6.97716000       0.31169000
H       -0.00092000       7.01080000       2.63914000
H       -0.00092000      -2.65563000       6.60571000
H        3.15656000       6.97716000       0.31169000
H       -6.97614000      -3.15554000       0.31169000
H        2.14971000      -5.35853000      -4.85876000
H       -6.97614000       3.15942000       0.31169000
H        5.35955000       2.15257000      -4.85876000
H       -2.15155000      -5.35853000      -4.85876000
H        3.15656000      -6.97328000       0.31169000
H       -0.00092000      -7.00693000       2.63914000
H       -3.15840000      -6.97328000       0.31169000
H       -0.00092000       2.65950000       6.60571000
H        2.14971000       5.36241000      -4.85876000
