109
Properties=species:S:1:pos:R:3 pbc="F F F"
Sr      -0.03312000       0.00892000       0.01269800
Si      -1.53085000      -4.42277000       1.26371000
Al      -4.59598000      -0.88793000      -1.25244000
Si      -3.06987000      -3.53123000      -1.25244000
Si      -3.06815000      -0.00683000      -3.74331000
Si      -1.54290000      -2.64864000      -3.74331000
Si      -3.07245000       0.00360000       3.74054000
Si       1.52309000      -4.42277000       1.26371000
Si      -1.53602000      -2.65759000       3.74054000
Si      -3.07159000       3.53546000       1.26371000
Si       3.06211000      -3.53123000      -1.25244000
Si      -1.52999000       4.42252000      -1.25244000
Si       1.53514000      -2.64864000      -3.74331000
Si      -1.52913000       2.65883000      -3.74331000
Si       1.52825000      -2.65759000       3.74054000
Al      -1.54032000       2.65734000       3.74054000
Si       4.59080000       0.89067000       1.26371000
Si       4.58822000      -0.88793000      -1.25244000
Si       3.06039000      -0.00683000      -3.74331000
Si       3.06469000       0.00360000       3.74054000
Si       3.06383000       3.53546000       1.26371000
Si       1.52223000       4.42252000      -1.25244000
Si       1.52137000       2.65883000      -3.74331000
Si       1.53256000       2.65734000       3.74054000
Si      -4.59856000       0.89067000       1.26371000
O        1.88805000       1.09342000       3.59451000
O        3.57684000      -0.03069000       5.26539000
O        2.49057000       3.51459000       2.76890000
O        4.30331000       4.55819000       1.17665000
O        1.90182000       4.00955000       0.25556000
O        2.50435000       5.59583000      -1.75511000
O        1.68319000       3.14187000      -2.21565000
O        4.27060000      -2.46676000      -1.30018000
O       -2.51383000      -1.44701000       3.32773000
O       -3.58460000      -0.03069000       5.26539000
O       -1.89581000       1.09342000       3.59451000
O       -0.00388000      -4.11267000       0.85933000
O       -1.79940000      -3.91587000       2.76890000
O       -4.42814000      -0.35271000       0.25556000
O       -1.79682000      -6.00755000       1.17665000
O       -2.52243000      -3.65348000       0.25556000
O       -6.10315000      -0.62405000      -1.75511000
O       -3.56739000      -0.10821000      -2.21565000
O        6.09539000      -0.62405000      -1.75511000
O        3.55962000      -0.10821000      -2.21565000
O        2.50348000       3.51906000      -4.68687000
O        1.75894000       3.11802000       5.26539000
O       -6.10402000       1.45272000       1.17665000
O       -2.51211000       5.59583000      -1.75511000
O       -1.69095000       3.14187000      -2.21565000
O       -0.00388000       4.93687000      -1.30018000
O        1.78906000      -3.92929000      -4.68687000
O        2.48885000      -1.43806000      -4.21509000
O       -4.27836000      -2.46676000      -1.30018000
O       -3.59493000      -4.96842000      -1.75511000
O       -1.88032000      -3.03030000      -2.21565000
O       -4.30419000       0.41359000      -4.68687000
O       -2.49661000      -1.43806000      -4.21509000
O       -1.90442000       1.09939000      -3.85845000
O       -1.79682000      -3.92929000      -4.68687000
O       -0.00474000      -2.19393000      -3.85845000
O       -4.29386000       0.40465000       2.76890000
O        1.79164000      -3.91587000       2.76890000
O        4.29643000       0.41359000      -4.68687000
O        1.89752000       1.09790000      -3.85845000
O       -2.51125000       3.51906000      -4.68687000
O       -0.00388000       2.87948000      -4.21509000
O        2.50521000      -1.44850000       3.32773000
O        1.81402000      -3.08397000       5.26539000
O       -0.00302000       2.89886000       3.32773000
O       -1.76670000       3.11802000       5.26539000
O        3.55876000       2.05801000       0.85933000
O        4.28610000       0.40465000       2.76890000
O        6.09625000       1.45272000       1.17665000
O        4.42037000      -0.35271000       0.25556000
O        1.78906000      -6.00755000       1.17665000
O        2.51467000      -3.65348000       0.25556000
O       -0.00388000      -2.18349000       3.59451000
O       -1.82178000      -3.08397000       5.26539000
O       -3.56652000       2.05801000       0.85933000
O       -2.49833000       3.51459000       2.76890000
O       -4.31107000       4.55819000       1.17665000
O       -1.90958000       4.00955000       0.25556000
O        3.58717000      -4.96842000      -1.75511000
O        1.87255000      -3.03030000      -2.21565000
H        3.88879000      -0.05157000       6.19418000
H        5.05810000       5.18099000       1.12364000
H        3.10195000       6.30977000      -2.06098000
H       -3.89655000      -0.05157000       6.19418000
H       -1.95879000      -6.97262000       1.12364000
H       -7.02025000      -0.46348000      -2.06098000
H        7.01249000      -0.46348000      -2.06098000
H        3.10098000       4.04240000      -5.26090000
H        1.89682000       3.39862000       6.19418000
H       -7.02077000       1.79499000       1.12364000
H       -3.10971000       6.30977000      -2.06098000
H        1.94354000      -4.70841000      -5.26090000
H       -3.91442000      -5.84294000      -2.06098000
H       -5.05616000       0.66937000      -5.26090000
H       -1.95130000      -4.70841000      -5.26090000
H        5.04840000       0.66937000      -5.26090000
H       -3.10874000       4.04240000      -5.26090000
H        1.98809000      -3.34369000       6.19418000
H       -1.90458000       3.39862000       6.19418000
H        7.01301000       1.79499000       1.12364000
H        1.95103000      -6.97262000       1.12364000
H       -1.99585000      -3.34369000       6.19418000
H       -5.06586000       5.18099000       1.12364000
H        3.90666000      -5.84294000      -2.06098000
