109
Properties=species:S:1:pos:R:3 pbc="F F F"
K       -0.00517400       0.00000000       0.00309000
Si      -2.17088000       0.00000000       4.06592000
Si      -1.50401000       3.75511000      -2.92986000
Si       2.30445000       4.56143000      -0.09489000
Si      -4.56436000      -2.30739000      -0.09489000
Al      -4.51101000       0.00000000       1.96976000
Si       1.49814000      -3.75511000      -2.92986000
Si      -2.31032000      -4.56142000      -0.09489000
Si      -0.00293000       2.16795000       4.06592000
Si       1.49814000       3.75511000      -2.92986000
Si      -2.31032000       4.56143000      -0.09489000
Si      -0.00293000       4.50808000       1.96976000
Si      -0.00293000      -2.16795000       4.06592000
Si       3.75218000       1.50108000      -2.92986000
Si      -1.50401000      -3.75511000      -2.92986000
Si       2.30445000      -4.56142000      -0.09489000
Si      -0.00293000      -4.50807000       1.96976000
Si      -3.75805000      -1.50107000      -2.92986000
Si      -4.56436000       2.30739000      -0.09489000
Si      -3.75805000       1.50108000      -2.92986000
Si       4.55849000      -2.30739000      -0.09489000
Si       2.16502000       0.00000000       4.06592000
Si       3.75218000      -1.50107000      -2.92986000
Si       4.55849000       2.30739000      -0.09489000
Si       4.50514000       0.00000000       1.96976000
O       -4.75593000       1.90484000      -4.12684000
O        4.50999000      -1.54957000      -1.51237000
O        4.15473000      -1.30950000       1.10209000
O        6.05957000      -2.83604000       0.15997000
O        3.57030000       0.00000000       3.28129000
O        2.46935000       0.00000000       5.64663000
O        4.75007000      -1.90484000      -4.12684000
O       -1.31243000       4.15766000       1.10209000
O       -6.06543000       0.00000000       2.38785000
O        1.54664000      -4.51292000      -1.51237000
O       -4.16060000       1.30950000       1.10209000
O       -3.57617000       0.00000000       3.28129000
O       -2.47522000       0.00000000       5.64663000
O       -1.55251000       4.51293000      -1.51237000
O       -1.31728000      -1.31435000       3.69365000
O       -1.31728000       1.31435000       3.69365000
O       -1.90777000       4.75300000      -4.12684000
O       -0.00293000       3.22646000      -3.18472000
O       -4.75593000      -1.90484000      -4.12684000
O       -3.22940000       0.00000000      -3.18472000
O        4.15473000       1.30950000       1.10209000
O        6.05957000       2.83604000       0.15997000
O        6.05957000       0.00000000       2.38785000
O       -2.83897000       6.06250000       0.15997000
O       -3.57496000       3.57203000      -0.12066000
O       -0.00293000       6.06250000       2.38785000
O       -0.00293000      -3.57324000       3.28129000
O       -0.00293000      -2.47229000       5.64663000
O       -2.49341000       2.49048000      -2.90408000
O        1.54664000       4.51293000      -1.51237000
O        1.30657000       4.15766000       1.10209000
O        2.83310000       6.06250000       0.15997000
O        3.56909000       3.57203000      -0.12066000
O       -4.51586000      -1.54957000      -1.51237000
O       -4.16060000      -1.30950000       1.10209000
O       -6.06543000      -2.83604000       0.15997000
O       -3.57496000      -3.57202000      -0.12066000
O        1.90190000      -4.75300000      -4.12684000
O       -4.51586000       1.54958000      -1.51237000
O       -6.06543000       2.83604000       0.15997000
O        1.31142000      -1.31435000       3.69365000
O        4.50999000       1.54958000      -1.51237000
O        4.75007000       1.90484000      -4.12684000
O        3.22353000       0.00000000      -3.18472000
O       -1.90777000      -4.75300000      -4.12684000
O       -2.49341000      -2.49047000      -2.90408000
O        1.30657000      -4.15766000       1.10209000
O        2.83310000      -6.06250000       0.15997000
O        3.56909000      -3.57202000      -0.12066000
O       -0.00293000      -6.06250000       2.38785000
O       -0.00293000      -3.22646000      -3.18472000
O        2.48754000      -2.49047000      -2.90408000
O       -1.55251000      -4.51292000      -1.51237000
O       -1.31243000      -4.15766000       1.10209000
O       -2.83897000      -6.06250000       0.15997000
O       -0.00293000       3.57324000       3.28129000
O       -0.00293000       2.47229000       5.64663000
O        1.31142000       1.31435000       3.69365000
O        1.90190000       4.75300000      -4.12684000
O        2.48754000       2.49048000      -2.90408000
H       -5.36341000       2.15063000      -4.85551000
H        6.97229000      -3.15748000       0.31493000
H        2.65463000       0.00000000       6.60895000
H        5.35754000      -2.15063000      -4.85551000
H       -7.01180000       0.00000000       2.64239000
H       -2.66050000       0.00000000       6.60895000
H       -2.15357000       5.36047000      -4.85551000
H       -5.36341000      -2.15063000      -4.85551000
H        6.97229000       3.15748000       0.31493000
H        7.00593000       0.00000000       2.64239000
H       -3.16041000       6.97522000       0.31493000
H       -0.00293000       7.00887000       2.64239000
H       -0.00293000      -2.65757000       6.60895000
H        3.15455000       6.97522000       0.31493000
H       -6.97816000      -3.15748000       0.31493000
H        2.14770000      -5.36047000      -4.85551000
H       -6.97816000       3.15748000       0.31493000
H        5.35754000       2.15063000      -4.85551000
H       -2.15357000      -5.36047000      -4.85551000
H        3.15455000      -6.97522000       0.31493000
H       -0.00293000      -7.00887000       2.64239000
H       -3.16041000      -6.97522000       0.31493000
H       -0.00293000       2.65757000       6.60895000
H        2.14770000       5.36047000      -4.85551000
