109
Properties=species:S:1:pos:R:3 pbc="F F F"
Sr      -0.00907900       0.03084900      -0.01614700
Si      -2.16887000       0.00384000       4.06267000
Si      -1.50199000       3.75895000      -2.93310000
Al       2.30647000       4.56526000      -0.09814000
Si      -4.56234000      -2.30355000      -0.09814000
Si      -4.50899000       0.00383300       1.96652000
Si       1.50016000      -3.75127000      -2.93310000
Si      -2.30830000      -4.55759000      -0.09814000
Si      -0.00092000       2.17179000       4.06267000
Si       1.50016000       3.75895000      -2.93310000
Si      -2.30830000       4.56526000      -0.09814000
Si      -0.00092000       4.51191000       1.96652000
Si      -0.00092000      -2.16411000       4.06267000
Si       3.75420000       1.50491000      -2.93310000
Si      -1.50199000      -3.75127000      -2.93310000
Si       2.30647000      -4.55759000      -0.09814000
Si      -0.00092000      -4.50424000       1.96652000
Si      -3.75603000      -1.49724000      -2.93310000
Si      -4.56234000       2.31123000      -0.09814000
Al      -3.75603000       1.50491000      -2.93310000
Si       4.56051000      -2.30355000      -0.09814000
Si       2.16703000       0.00384000       4.06267000
Si       3.75420000      -1.49724000      -2.93310000
Si       4.56051000       2.31123000      -0.09814000
Si       4.50716000       0.00384000       1.96652000
O       -4.75392000       1.90868000      -4.13009000
O        4.51201000      -1.54574000      -1.51562000
O        4.15675000      -1.30566000       1.09885000
O        6.06158000      -2.83220000       0.15672000
O        3.57232000       0.00384000       3.27805000
O        2.47137000       0.00384000       5.64338000
O        4.75208000      -1.90100000      -4.13009000
O       -1.31042000       4.16150000       1.09885000
O       -6.06342000       0.00384600       2.38460000
O        1.54866000      -4.50909000      -1.51562000
O       -4.15858000       1.31334000       1.09885000
O       -3.57415000       0.00384100       3.27805000
O       -2.47320000       0.00384000       5.64338000
O       -1.55049000       4.51676000      -1.51562000
O       -1.31527000      -1.31051000       3.69040000
O       -1.31527000       1.31819000       3.69040000
O       -1.90575000       4.75684000      -4.13009000
O       -0.00092000       3.23030000      -3.18796000
O       -4.75392000      -1.90100000      -4.13009000
O       -3.22738000       0.00384000      -3.18796000
O        4.15675000       1.31334000       1.09885000
O        6.06158000       2.83988000       0.15672000
O        6.06158000       0.00384000       2.38460000
O       -2.83695000       6.06634000       0.15672000
O       -3.57294000       3.57586000      -0.12391000
O       -0.00092000       6.06634000       2.38460000
O       -0.00092000      -3.56940000       3.27805000
O       -0.00092000      -2.46845000       5.64338000
O       -2.49139000       2.49431000      -2.90733000
O        1.54866000       4.51676000      -1.51562000
O        1.30858000       4.16150000       1.09885000
O        2.83512000       6.06634000       0.15672000
O        3.57111000       3.57586000      -0.12391000
O       -4.51384000      -1.54574000      -1.51562000
O       -4.15858000      -1.30566000       1.09885000
O       -6.06342000      -2.83220000       0.15672000
O       -3.57294000      -3.56819000      -0.12391000
O        1.90392000      -4.74916000      -4.13009000
O       -4.51384000       1.55341000      -1.51562000
O       -6.06342000       2.83988000       0.15672000
O        1.31343000      -1.31051000       3.69040000
O        4.51201000       1.55341000      -1.51562000
O        4.75208000       1.90868000      -4.13009000
O        3.22555000       0.00384000      -3.18796000
O       -1.90575000      -4.74916000      -4.13009000
O       -2.49139000      -2.48664000      -2.90733000
O        1.30858000      -4.15382000       1.09885000
O        2.83512000      -6.05866000       0.15672000
O        3.57111000      -3.56819000      -0.12391000
O       -0.00092000      -6.05866000       2.38460000
O       -0.00092000      -3.22262000      -3.18796000
O        2.48956000      -2.48664000      -2.90733000
O       -1.55049000      -4.50909000      -1.51562000
O       -1.31042000      -4.15382000       1.09885000
O       -2.83695000      -6.05866000       0.15672000
O       -0.00092000       3.57708000       3.27805000
O       -0.00092000       2.47613000       5.64338000
O        1.31343000       1.31819000       3.69040000
O        1.90392000       4.75684000      -4.13009000
O        2.48956000       2.49431000      -2.90733000
H       -5.36139000       2.15447000      -4.85876000
H        6.97430000      -3.15364000       0.31169000
H        2.65665000       0.00384000       6.60571000
H        5.35955000      -2.14679000      -4.85876000
H       -7.00978000       0.00383900       2.63914000
H       -2.65848000       0.00384000       6.60571000
H       -2.15155000       5.36431000      -4.85876000
H       -5.36139000      -2.14679000      -4.85876000
H        6.97430000       3.16132000       0.31169000
H        7.00795000       0.00384000       2.63914000
H       -3.15840000       6.97906000       0.31169000
H       -0.00092000       7.01271000       2.63914000
H       -0.00092000      -2.65373000       6.60571000
H        3.15656000       6.97906000       0.31169000
H       -6.97614000      -3.15364000       0.31169000
H        2.14971000      -5.35663000      -4.85876000
H       -6.97614000       3.16132000       0.31169000
H        5.35955000       2.15447000      -4.85876000
H       -2.15155000      -5.35663000      -4.85876000
H        3.15656000      -6.97138000       0.31169000
H       -0.00092000      -7.00503000       2.63914000
H       -3.15840000      -6.97138000       0.31169000
H       -0.00092000       2.66141000       6.60571000
H        2.14971000       5.36431000      -4.85876000
