145
Properties=species:S:1:pos:R:3 pbc="F F F"
Sr      -0.03606800       0.02272500      -0.00028700
Al      -3.35283000       1.55647000       5.53624000
Si       3.74954000      -3.34812000       1.55498000
Si      -3.75598000       3.35111000      -1.55498000
Si       5.53302000       1.55647000       3.34961000
Si      -5.53946000      -1.55348000       3.34961000
Si       3.34639000      -1.55348000      -5.53624000
Si       1.55176000       3.35111000       3.75276000
Si      -1.55820000      -3.34812000      -3.75276000
Si       3.74954000      -3.34812000      -1.55498000
Si       3.34639000       1.55647000      -5.53624000
Si      -3.75598000       3.35111000       1.55498000
Si       5.53302000       1.55647000      -3.34961000
Si      -5.53946000       1.55647000      -3.34961000
Si      -3.35283000      -1.55348000       5.53624000
Si       1.55176000       3.35111000      -3.75276000
Si      -3.75598000      -3.34812000       1.55498000
Si      -1.55820000      -3.34812000       3.75276000
Si       5.53302000      -1.55348000       3.34961000
Si       3.34639000       1.55647000       5.53624000
Si      -5.53946000       1.55647000       3.34961000
Si      -3.35283000      -1.55348000      -5.53624000
Si       1.55176000      -3.34812000       3.75276000
Si       3.74954000       3.35111000      -1.55498000
Si      -1.55820000       3.35111000      -3.75276000
Al      -3.35283000       1.55647000      -5.53624000
Si      -3.75598000      -3.34812000      -1.55498000
Si       5.53302000      -1.55348000      -3.34961000
Si      -5.53946000      -1.55348000      -3.34961000
Si       1.55176000      -3.34812000      -3.75276000
Si       3.34639000      -1.55348000       5.53624000
Si       3.74954000       3.35111000       1.55498000
Si      -1.55820000       3.35111000       3.75276000
O       -6.93096000       2.36276000       3.43879000
O        1.70224000       4.74260000      -4.54789000
O        2.35804000       3.44028000      -2.36126000
O       -3.45130000      -3.06759000       0.00000000
O       -4.55111000      -4.73961000       1.70546000
O       -2.36448000      -3.43729000       2.36126000
O       -0.00322000      -3.06759000       3.44808000
O       -1.70868000      -4.73961000       4.54789000
O       -2.15455000      -2.14984000      -4.64450000
O       -4.74433000      -1.70396000       4.74111000
O       -4.64772000      -2.14984000       2.15133000
O       -2.36448000      -3.43729000      -2.36126000
O        4.54467000      -4.73961000      -1.70546000
O        4.64128000      -2.14984000      -2.15133000
O        2.35804000      -3.43729000      -2.36126000
O        4.73789000       1.70696000      -4.74111000
O       -5.84414000       0.00150000       3.06909000
O       -3.07231000       0.00150000       5.84092000
O       -4.74433000       1.70696000       4.74111000
O        3.44486000      -3.06759000       0.00000000
O       -2.15455000       2.15283000       4.64450000
O       -3.44201000       2.36276000       6.92774000
O        4.54467000      -4.73961000       1.70546000
O        4.64128000      -2.14984000       2.15133000
O       -6.93096000       2.36276000      -3.43879000
O       -2.15455000      -2.14984000       4.64450000
O        1.70224000      -4.73961000      -4.54789000
O        3.06587000       0.00150000      -5.84092000
O        4.73789000      -1.70396000      -4.74111000
O        2.14811000      -2.14984000      -4.64450000
O        3.43557000      -2.35977000      -6.92774000
O       -0.00322000       3.07058000       3.44808000
O        1.70224000       4.74260000       4.54789000
O        2.14811000       2.15283000       4.64450000
O        2.35804000       3.44028000       2.36126000
O       -0.00322000      -3.06759000      -3.44808000
O       -1.70868000      -4.73961000      -4.54789000
O        3.43557000      -2.35977000       6.92774000
O        4.54467000       4.74260000       1.70546000
O       -1.70868000       4.74260000       4.54789000
O        2.35804000      -3.43729000       2.36126000
O       -3.45130000       3.07058000       0.00000000
O       -4.55111000       4.74260000      -1.70546000
O       -4.64772000       2.15283000      -2.15133000
O       -2.36448000       3.44028000      -2.36126000
O        5.83770000       0.00150000       3.06909000
O        4.73789000       1.70696000       4.74111000
O        4.64128000       2.15283000       2.15133000
O        6.92452000       2.36276000       3.43879000
O       -6.93096000      -2.35977000       3.43879000
O        1.70224000      -4.73961000       4.54789000
O        2.14811000      -2.14984000       4.64450000
O        3.44486000       3.07058000       0.00000000
O       -3.07231000       0.00150000      -5.84092000
O       -4.74433000      -1.70396000      -4.74111000
O       -3.44201000      -2.35977000      -6.92774000
O        4.73789000      -1.70396000       4.74111000
O        6.92452000      -2.35977000       3.43879000
O        3.06587000       0.00150000       5.84092000
O        3.43557000       2.36276000       6.92774000
O       -3.44201000      -2.35977000       6.92774000
O       -0.00322000       3.07058000      -3.44808000
O        2.14811000       2.15283000      -4.64450000
O        3.43557000       2.36276000      -6.92774000
O       -4.55111000       4.74260000       1.70546000
O       -4.64772000       2.15283000       2.15133000
O       -2.36448000       3.44028000       2.36126000
O        5.83770000       0.00150000      -3.06909000
O        4.64128000       2.15283000      -2.15133000
O        6.92452000       2.36276000      -3.43879000
O       -5.84414000       0.00150000      -3.06909000
O       -4.74433000       1.70696000      -4.74111000
O        4.54467000       4.74260000      -1.70546000
O       -1.70868000       4.74260000      -4.54789000
O       -2.15455000       2.15283000      -4.64450000
O       -3.44201000       2.36276000      -6.92774000
O       -4.55111000      -4.73961000      -1.70546000
O       -4.64772000      -2.14984000      -2.15133000
O        6.92452000      -2.35977000      -3.43879000
O       -6.93096000      -2.35977000      -3.43879000
H       -7.77759000       2.85333000       3.49304000
H        1.79385000       5.58975000      -5.03198000
H       -5.03520000      -5.58676000       1.79707000
H       -1.80030000      -5.58676000       5.03198000
H        5.02876000      -5.58676000      -1.79708000
H       -3.49627000       2.85333000       7.77437000
H        5.02876000      -5.58676000       1.79707000
H       -7.77759000       2.85333000      -3.49305000
H        1.79385000      -5.58676000      -5.03198000
H        3.48982000      -2.85034000      -7.77437000
H        1.79385000       5.58975000       5.03198000
H       -1.80030000      -5.58676000      -5.03198000
H        3.48982000      -2.85034000       7.77437000
H        5.02876000       5.58975000       1.79707000
H       -1.80030000       5.58975000       5.03198000
H       -5.03520000       5.58975000      -1.79708000
H        7.77115000       2.85333000       3.49304000
H       -7.77759000      -2.85034000       3.49304000
H        1.79385000      -5.58676000       5.03198000
H       -3.49627000      -2.85034000      -7.77437000
H        7.77115000      -2.85034000       3.49304000
H        3.48982000       2.85333000       7.77437000
H       -3.49627000      -2.85034000       7.77437000
H        3.48982000       2.85333000      -7.77437000
H       -5.03520000       5.58975000       1.79707000
H        7.77115000       2.85333000      -3.49305000
H        5.02876000       5.58975000      -1.79708000
H       -1.80030000       5.58975000      -5.03198000
H       -3.49627000       2.85333000      -7.77437000
H       -5.03520000      -5.58676000      -1.79708000
H        7.77115000      -2.85034000      -3.49305000
H       -7.77759000      -2.85034000      -3.49305000
