145
Properties=species:S:1:pos:R:3 pbc="F F F"
Sr       0.04211000      -0.00102200      -0.00916100
Si      -3.34534000       1.55498000       5.53519000
Si       3.75703000      -3.34961000       1.55393000
Si      -3.74848000       3.34961000      -1.55603000
Al       5.54052000       1.55498000       3.34856000
Si      -5.53197000      -1.55498000       3.34856000
Al       3.35388000      -1.55498000      -5.53730000
Si       1.55925000       3.34961000       3.75170000
Si      -1.55071000      -3.34961000      -3.75381000
Si       3.75703000      -3.34961000      -1.55603000
Si       3.35388000       1.55498000      -5.53730000
Si      -3.74848000       3.34961000       1.55393000
Si       5.54052000       1.55498000      -3.35066000
Si      -5.53197000       1.55498000      -3.35066000
Si      -3.34534000      -1.55498000       5.53519000
Si       1.55925000       3.34961000      -3.75381000
Si      -3.74848000      -3.34961000       1.55393000
Si      -1.55071000      -3.34961000       3.75170000
Si       5.54052000      -1.55498000       3.34856000
Si       3.35388000       1.55498000       5.53519000
Si      -5.53197000       1.55498000       3.34856000
Si      -3.34534000      -1.55498000      -5.53730000
Si       1.55925000      -3.34961000       3.75170000
Si       3.75703000       3.34961000      -1.55603000
Si      -1.55071000       3.34961000      -3.75381000
Si      -3.34534000       1.55498000      -5.53730000
Si      -3.74848000      -3.34961000      -1.55603000
Si       5.54052000      -1.55498000      -3.35066000
Si      -5.53197000      -1.55498000      -3.35066000
Si       1.55925000      -3.34961000      -3.75381000
Si       3.35388000      -1.55498000       5.53519000
Si       3.75703000       3.34961000       1.55393000
Si      -1.55071000       3.34961000       3.75170000
O       -6.92346000       2.36126000       3.43774000
O        1.70973000       4.74111000      -4.54895000
O        2.36554000       3.43879000      -2.36232000
O       -3.44381000      -3.06909000      -0.00105000
O       -4.54362000      -4.74111000       1.70441000
O       -2.35699000      -3.43879000       2.36021000
O        0.00427000      -3.06909000       3.44703000
O       -1.70119000      -4.74111000       4.54684000
O       -2.14706000      -2.15133000      -4.64555000
O       -4.73683000      -1.70546000       4.74005000
O       -4.64023000      -2.15133000       2.15028000
O       -2.35699000      -3.43879000      -2.36232000
O        4.55217000      -4.74111000      -1.70651000
O        4.64877000      -2.15133000      -2.15238000
O        2.36554000      -3.43879000      -2.36232000
O        4.74538000       1.70546000      -4.74216000
O       -5.83665000       0.00000000       3.06803000
O       -3.06481000       0.00000000       5.83987000
O       -4.73683000       1.70546000       4.74005000
O        3.45235000      -3.06909000      -0.00105000
O       -2.14706000       2.15133000       4.64345000
O       -3.43452000       2.36126000       6.92668000
O        4.55217000      -4.74111000       1.70441000
O        4.64877000      -2.15133000       2.15028000
O       -6.92346000       2.36126000      -3.43984000
O       -2.14706000      -2.15133000       4.64345000
O        1.70973000      -4.74111000      -4.54895000
O        3.07336000       0.00000000      -5.84197000
O        4.74538000      -1.70546000      -4.74216000
O        2.15560000      -2.15133000      -4.64555000
O        3.44306000      -2.36126000      -6.92879000
O        0.00427000       3.06909000       3.44703000
O        1.70973000       4.74111000       4.54684000
O        2.15560000       2.15133000       4.64345000
O        2.36554000       3.43879000       2.36021000
O        0.00427000      -3.06909000      -3.44913000
O       -1.70119000      -4.74111000      -4.54895000
O        3.44306000      -2.36126000       6.92668000
O        4.55217000       4.74111000       1.70441000
O       -1.70119000       4.74111000       4.54684000
O        2.36554000      -3.43879000       2.36021000
O       -3.44381000       3.06909000      -0.00105000
O       -4.54362000       4.74111000      -1.70651000
O       -4.64023000       2.15133000      -2.15238000
O       -2.35699000       3.43879000      -2.36232000
O        5.84519000       0.00000000       3.06803000
O        4.74538000       1.70546000       4.74005000
O        4.64877000       2.15133000       2.15028000
O        6.93201000       2.36126000       3.43774000
O       -6.92346000      -2.36126000       3.43774000
O        1.70973000      -4.74111000       4.54684000
O        2.15560000      -2.15133000       4.64345000
O        3.45235000       3.06909000      -0.00105000
O       -3.06481000       0.00000000      -5.84197000
O       -4.73683000      -1.70546000      -4.74216000
O       -3.43452000      -2.36126000      -6.92879000
O        4.74538000      -1.70546000       4.74005000
O        6.93201000      -2.36126000       3.43774000
O        3.07336000       0.00000000       5.83987000
O        3.44306000       2.36126000       6.92668000
O       -3.43452000      -2.36126000       6.92668000
O        0.00427000       3.06909000      -3.44913000
O        2.15560000       2.15133000      -4.64555000
O        3.44306000       2.36126000      -6.92879000
O       -4.54362000       4.74111000       1.70441000
O       -4.64023000       2.15133000       2.15028000
O       -2.35699000       3.43879000       2.36021000
O        5.84519000       0.00000000      -3.07014000
O        4.64877000       2.15133000      -2.15238000
O        6.93201000       2.36126000      -3.43984000
O       -5.83665000       0.00000000      -3.07014000
O       -4.73683000       1.70546000      -4.74216000
O        4.55217000       4.74111000      -1.70651000
O       -1.70119000       4.74111000      -4.54895000
O       -2.14706000       2.15133000      -4.64555000
O       -3.43452000       2.36126000      -6.92879000
O       -4.54362000      -4.74111000      -1.70651000
O       -4.64023000      -2.15133000      -2.15238000
O        6.93201000      -2.36126000      -3.43984000
O       -6.92346000      -2.36126000      -3.43984000
H       -7.77010000       2.85184000       3.49199000
H        1.80135000       5.58826000      -5.03303000
H       -5.02771000      -5.58826000       1.79602000
H       -1.79280000      -5.58826000       5.03093000
H        5.03625000      -5.58826000      -1.79813000
H       -3.48877000       2.85184000       7.77332000
H        5.03625000      -5.58826000       1.79602000
H       -7.77010000       2.85184000      -3.49410000
H        1.80135000      -5.58826000      -5.03303000
H        3.49732000      -2.85184000      -7.77542000
H        1.80135000       5.58826000       5.03093000
H       -1.79280000      -5.58826000      -5.03303000
H        3.49732000      -2.85184000       7.77332000
H        5.03625000       5.58826000       1.79602000
H       -1.79280000       5.58826000       5.03093000
H       -5.02771000       5.58826000      -1.79813000
H        7.77864000       2.85184000       3.49199000
H       -7.77010000      -2.85184000       3.49199000
H        1.80135000      -5.58826000       5.03093000
H       -3.48877000      -2.85184000      -7.77542000
H        7.77864000      -2.85184000       3.49199000
H        3.49732000       2.85184000       7.77332000
H       -3.48877000      -2.85184000       7.77332000
H        3.49732000       2.85184000      -7.77542000
H       -5.02771000       5.58826000       1.79602000
H        7.77864000       2.85184000      -3.49410000
H        5.03625000       5.58826000      -1.79813000
H       -1.79280000       5.58826000      -5.03303000
H       -3.48877000       2.85184000      -7.77542000
H       -5.02771000      -5.58826000      -1.79813000
H        7.77864000      -2.85184000      -3.49410000
H       -7.77010000      -2.85184000      -3.49410000
