145
Properties=species:S:1:pos:R:3 pbc="F F F"
Sr       0.00844100       0.03108600       0.03496200
Si      -3.34770000       1.55734000       5.53966000
Si       3.75467000      -3.34726000       1.55839000
Si      -3.75084000       3.35197000      -1.55156000
Al       5.53816000       1.55734000       3.35303000
Si      -5.53433000      -1.55262000       3.35303000
Si       3.35153000      -1.55262000      -5.53283000
Si       1.55689000       3.35197000       3.75617000
Si      -1.55307000      -3.34726000      -3.74934000
Si       3.75467000      -3.34726000      -1.55156000
Si       3.35153000       1.55734000      -5.53283000
Si      -3.75084000       3.35197000       1.55839000
Si       5.53816000       1.55734000      -3.34620000
Si      -5.53433000       1.55734000      -3.34620000
Si      -3.34770000      -1.55262000       5.53966000
Si       1.55689000       3.35197000      -3.74934000
Si      -3.75084000      -3.34726000       1.55839000
Si      -1.55307000      -3.34726000       3.75617000
Si       5.53816000      -1.55262000       3.35303000
Si       3.35153000       1.55734000       5.53966000
Si      -5.53433000       1.55734000       3.35303000
Si      -3.34770000      -1.55262000      -5.53283000
Si       1.55689000      -3.34726000       3.75617000
Si       3.75467000       3.35197000      -1.55156000
Si      -1.55307000       3.35197000      -3.74934000
Si      -3.34770000       1.55734000      -5.53283000
Si      -3.75084000      -3.34726000      -1.55156000
Si       5.53816000      -1.55262000      -3.34620000
Si      -5.53433000      -1.55262000      -3.34620000
Si       1.55689000      -3.34726000      -3.74934000
Si       3.35153000      -1.55262000       5.53966000
Si       3.75467000       3.35197000       1.55839000
Al      -1.55307000       3.35197000       3.75617000
O       -6.92582000       2.36362000       3.44220000
O        1.70737000       4.74346000      -4.54448000
O        2.36318000       3.44115000      -2.35785000
O       -3.44616000      -3.06673000       0.00341000
O       -4.54598000      -4.73875000       1.70887000
O       -2.35935000      -3.43643000       2.36468000
O        0.00191000      -3.06673000       3.45149000
O       -1.70355000      -4.73875000       4.55131000
O       -2.14942000      -2.14897000      -4.64109000
O       -4.73919000      -1.70310000       4.74452000
O       -4.64259000      -2.14897000       2.15475000
O       -2.35935000      -3.43643000      -2.35785000
O        4.54981000      -4.73875000      -1.70205000
O        4.64641000      -2.14897000      -2.14792000
O        2.36318000      -3.43643000      -2.35785000
O        4.74302000       1.70782000      -4.73769000
O       -5.83901000       0.00236000       3.07250000
O       -3.06717000       0.00236000       5.84434000
O       -4.73919000       1.70782000       4.74452000
O        3.44999000      -3.06673000       0.00341000
O       -2.14942000       2.15369000       4.64791000
O       -3.43687000       2.36362000       6.93115000
O        4.54981000      -4.73875000       1.70887000
O        4.64641000      -2.14897000       2.15475000
O       -6.92582000       2.36362000      -3.43537000
O       -2.14942000      -2.14897000       4.64791000
O        1.70737000      -4.73875000      -4.54448000
O        3.07100000       0.00236000      -5.83751000
O        4.74302000      -1.70310000      -4.73769000
O        2.15325000      -2.14897000      -4.64109000
O        3.44070000      -2.35891000      -6.92432000
O        0.00191000       3.07144000       3.45149000
O        1.70737000       4.74346000       4.55131000
O        2.15325000       2.15369000       4.64791000
O        2.36318000       3.44115000       2.36468000
O        0.00191000      -3.06673000      -3.44466000
O       -1.70355000      -4.73875000      -4.54448000
O        3.44070000      -2.35891000       6.93115000
O        4.54981000       4.74346000       1.70887000
O       -1.70355000       4.74346000       4.55131000
O        2.36318000      -3.43643000       2.36468000
O       -3.44616000       3.07144000       0.00341000
O       -4.54598000       4.74346000      -1.70205000
O       -4.64259000       2.15369000      -2.14792000
O       -2.35935000       3.44115000      -2.35785000
O        5.84284000       0.00236000       3.07250000
O        4.74302000       1.70782000       4.74452000
O        4.64641000       2.15369000       2.15475000
O        6.92965000       2.36362000       3.44220000
O       -6.92582000      -2.35891000       3.44220000
O        1.70737000      -4.73875000       4.55131000
O        2.15325000      -2.14897000       4.64791000
O        3.44999000       3.07144000       0.00341000
O       -3.06717000       0.00236000      -5.83751000
O       -4.73919000      -1.70310000      -4.73769000
O       -3.43687000      -2.35891000      -6.92432000
O        4.74302000      -1.70310000       4.74452000
O        6.92965000      -2.35891000       3.44220000
O        3.07100000       0.00236000       5.84434000
O        3.44070000       2.36362000       6.93115000
O       -3.43687000      -2.35891000       6.93115000
O        0.00191000       3.07144000      -3.44466000
O        2.15325000       2.15369000      -4.64109000
O        3.44070000       2.36362000      -6.92432000
O       -4.54598000       4.74346000       1.70887000
O       -4.64259000       2.15369000       2.15475000
O       -2.35935000       3.44115000       2.36468000
O        5.84284000       0.00236000      -3.06567000
O        4.64641000       2.15369000      -2.14792000
O        6.92965000       2.36362000      -3.43537000
O       -5.83901000       0.00236000      -3.06567000
O       -4.73919000       1.70782000      -4.73769000
O        4.54981000       4.74346000      -1.70205000
O       -1.70355000       4.74346000      -4.54448000
O       -2.14942000       2.15369000      -4.64109000
O       -3.43687000       2.36362000      -6.92432000
O       -4.54598000      -4.73875000      -1.70205000
O       -4.64259000      -2.14897000      -2.14792000
O        6.92965000      -2.35891000      -3.43537000
O       -6.92582000      -2.35891000      -3.43537000
H       -7.77246000       2.85420000       3.49646000
H        1.79899000       5.59062000      -5.02857000
H       -5.03007000      -5.58590000       1.80049000
H       -1.79516000      -5.58590000       5.03540000
H        5.03389000      -5.58590000      -1.79366000
H       -3.49113000       2.85420000       7.77779000
H        5.03389000      -5.58590000       1.80049000
H       -7.77246000       2.85420000      -3.48963000
H        1.79899000      -5.58590000      -5.02857000
H        3.49496000      -2.84948000      -7.77096000
H        1.79899000       5.59062000       5.03540000
H       -1.79516000      -5.58590000      -5.02857000
H        3.49496000      -2.84948000       7.77779000
H        5.03389000       5.59062000       1.80049000
H       -1.79516000       5.59062000       5.03540000
H       -5.03007000       5.59062000      -1.79366000
H        7.77629000       2.85420000       3.49646000
H       -7.77246000      -2.84948000       3.49646000
H        1.79899000      -5.58590000       5.03540000
H       -3.49113000      -2.84948000      -7.77096000
H        7.77629000      -2.84948000       3.49646000
H        3.49496000       2.85420000       7.77779000
H       -3.49113000      -2.84948000       7.77779000
H        3.49496000       2.85420000      -7.77096000
H       -5.03007000       5.59062000       1.80049000
H        7.77629000       2.85420000      -3.48963000
H        5.03389000       5.59062000      -1.79366000
H       -1.79516000       5.59062000      -5.02857000
H       -3.49113000       2.85420000      -7.77096000
H       -5.03007000      -5.58590000      -1.79366000
H        7.77629000      -2.84948000      -3.48963000
H       -7.77246000      -2.84948000      -3.48963000
