109
Properties=species:S:1:pos:R:3 pbc="F F F"
Sr      -0.00016800       0.02833100       0.03307600
Si      -2.16795000       0.00423000       4.06841000
Si      -1.50108000       3.75934000      -2.92737000
Si       2.30739000       4.56565000      -0.09240000
Si      -4.56143000      -2.30316000      -0.09240000
Si      -4.50808000       0.00423700       1.97225000
Si       1.50107000      -3.75089000      -2.92737000
Si      -2.30739000      -4.55720000      -0.09240000
Al       0.00000000       2.17218000       4.06841000
Si       1.50107000       3.75934000      -2.92737000
Si      -2.30739000       4.56565000      -0.09240000
Al       0.00000000       4.51230000       1.97225000
Si       0.00000000      -2.16372000       4.06841000
Si       3.75511000       1.50530000      -2.92737000
Si      -1.50108000      -3.75089000      -2.92737000
Si       2.30739000      -4.55720000      -0.09240000
Si       0.00000000      -4.50385000       1.97225000
Si      -3.75511000      -1.49685000      -2.92737000
Si      -4.56143000       2.31161000      -0.09240000
Si      -3.75511000       1.50530000      -2.92737000
Si       4.56142000      -2.30316000      -0.09240000
Si       2.16795000       0.00423000       4.06841000
Si       3.75511000      -1.49685000      -2.92737000
Si       4.56142000       2.31161000      -0.09240000
Si       4.50807000       0.00423000       1.97225000
O       -4.75300000       1.90906000      -4.12435000
O        4.51292000      -1.54535000      -1.50988000
O        4.15766000      -1.30527000       1.10458000
O        6.06250000      -2.83181000       0.16246000
O        3.57324000       0.00423000       3.28378000
O        2.47229000       0.00423000       5.64912000
O        4.75300000      -1.90061000      -4.12435000
O       -1.30950000       4.16189000       1.10458000
O       -6.06250000       0.00422400       2.39034000
O        1.54957000      -4.50870000      -1.50988000
O       -4.15766000       1.31373000       1.10458000
O       -3.57324000       0.00422900       3.28378000
O       -2.47229000       0.00423000       5.64912000
O       -1.54958000       4.51715000      -1.50988000
O       -1.31435000      -1.31012000       3.69614000
O       -1.31435000       1.31858000       3.69614000
O       -1.90484000       4.75723000      -4.12435000
O        0.00000000       3.23069000      -3.18223000
O       -4.75300000      -1.90061000      -4.12435000
O       -3.22646000       0.00423000      -3.18223000
O        4.15766000       1.31373000       1.10458000
O        6.06250000       2.84026000       0.16246000
O        6.06250000       0.00423000       2.39034000
O       -2.83604000       6.06673000       0.16246000
O       -3.57203000       3.57625000      -0.11817000
O        0.00000000       6.06673000       2.39034000
O        0.00000000      -3.56901000       3.28378000
O        0.00000000      -2.46806000       5.64912000
O       -2.49048000       2.49470000      -2.90159000
O        1.54957000       4.51715000      -1.50988000
O        1.30950000       4.16189000       1.10458000
O        2.83604000       6.06673000       0.16246000
O        3.57202000       3.57625000      -0.11817000
O       -4.51293000      -1.54535000      -1.50988000
O       -4.15766000      -1.30527000       1.10458000
O       -6.06250000      -2.83181000       0.16246000
O       -3.57203000      -3.56780000      -0.11817000
O        1.90484000      -4.74877000      -4.12435000
O       -4.51293000       1.55380000      -1.50988000
O       -6.06250000       2.84026000       0.16246000
O        1.31435000      -1.31012000       3.69614000
O        4.51292000       1.55380000      -1.50988000
O        4.75300000       1.90906000      -4.12435000
O        3.22646000       0.00423000      -3.18223000
O       -1.90484000      -4.74877000      -4.12435000
O       -2.49048000      -2.48625000      -2.90159000
O        1.30950000      -4.15344000       1.10458000
O        2.83604000      -6.05827000       0.16246000
O        3.57202000      -3.56780000      -0.11817000
O        0.00000000      -6.05827000       2.39034000
O        0.00000000      -3.22224000      -3.18223000
O        2.49047000      -2.48625000      -2.90159000
O       -1.54958000      -4.50870000      -1.50988000
O       -1.30950000      -4.15344000       1.10458000
O       -2.83604000      -6.05827000       0.16246000
O        0.00000000       3.57746000       3.28378000
O        0.00000000       2.47651000       5.64912000
O        1.31435000       1.31858000       3.69614000
O        1.90484000       4.75723000      -4.12435000
O        2.49047000       2.49470000      -2.90159000
H       -5.36047000       2.15486000      -4.85302000
H        6.97522000      -3.15325000       0.31742000
H        2.65757000       0.00423000       6.61144000
H        5.36047000      -2.14640000      -4.85302000
H       -7.00887000       0.00423100       2.64488000
H       -2.65757000       0.00423000       6.61144000
H       -2.15063000       5.36470000      -4.85302000
H       -5.36047000      -2.14640000      -4.85302000
H        6.97522000       3.16171000       0.31742000
H        7.00887000       0.00423000       2.64488000
H       -3.15748000       6.97945000       0.31742000
H        0.00000000       7.01309000       2.64488000
H        0.00000000      -2.65334000       6.61144000
H        3.15748000       6.97945000       0.31742000
H       -6.97522000      -3.15325000       0.31742000
H        2.15063000      -5.35624000      -4.85302000
H       -6.97522000       3.16171000       0.31742000
H        5.36047000       2.15486000      -4.85302000
H       -2.15063000      -5.35624000      -4.85302000
H        3.15748000      -6.97099000       0.31742000
H        0.00000000      -7.00464000       2.64488000
H       -3.15748000      -6.97099000       0.31742000
H        0.00000000       2.66179000       6.61144000
H        2.15063000       5.36470000      -4.85302000
