109
Properties=species:S:1:pos:R:3 pbc="F F F"
Sr       0.00016800      -0.03140700      -0.02601500
Si      -2.16795000      -0.00475000       4.06088000
Si      -1.50108000       3.75036000      -2.93490000
Si       2.30739000       4.55667000      -0.09993000
Si      -4.56143000      -2.31214000      -0.09993000
Si      -4.50808000      -0.00474300       1.96472000
Al       1.50107000      -3.75987000      -2.93490000
Si      -2.30739000      -4.56618000      -0.09993000
Si       0.00000000       2.16320000       4.06088000
Si       1.50107000       3.75036000      -2.93490000
Si      -2.30739000       4.55667000      -0.09993000
Si       0.00000000       4.50332000       1.96472000
Si       0.00000000      -2.17270000       4.06088000
Si       3.75511000       1.49632000      -2.93490000
Al      -1.50108000      -3.75987000      -2.93490000
Si       2.30739000      -4.56618000      -0.09993000
Si       0.00000000      -4.51283000       1.96472000
Si      -3.75511000      -1.50583000      -2.93490000
Si      -4.56143000       2.30263000      -0.09993000
Si      -3.75511000       1.49632000      -2.93490000
Si       4.56142000      -2.31214000      -0.09993000
Si       2.16795000      -0.00475000       4.06088000
Si       3.75511000      -1.50583000      -2.93490000
Si       4.56142000       2.30263000      -0.09993000
Si       4.50807000      -0.00475000       1.96472000
O       -4.75300000       1.90008000      -4.13188000
O        4.51292000      -1.55433000      -1.51742000
O        4.15766000      -1.31425000       1.09705000
O        6.06250000      -2.84079000       0.15493000
O        3.57324000      -0.00475000       3.27625000
O        2.47229000      -0.00475000       5.64158000
O        4.75300000      -1.90959000      -4.13188000
O       -1.30950000       4.15291000       1.09705000
O       -6.06250000      -0.00475600       2.38281000
O        1.54957000      -4.51768000      -1.51742000
O       -4.15766000       1.30475000       1.09705000
O       -3.57324000      -0.00475100       3.27625000
O       -2.47229000      -0.00475000       5.64158000
O       -1.54958000       4.50817000      -1.51742000
O       -1.31435000      -1.31910000       3.68861000
O       -1.31435000       1.30960000       3.68861000
O       -1.90484000       4.74825000      -4.13188000
O        0.00000000       3.22171000      -3.18976000
O       -4.75300000      -1.90959000      -4.13188000
O       -3.22646000      -0.00475000      -3.18976000
O        4.15766000       1.30475000       1.09705000
O        6.06250000       2.83128000       0.15493000
O        6.06250000      -0.00475000       2.38281000
O       -2.83604000       6.05775000       0.15493000
O       -3.57203000       3.56727000      -0.12571000
O        0.00000000       6.05775000       2.38281000
O        0.00000000      -3.57799000       3.27625000
O        0.00000000      -2.47704000       5.64158000
O       -2.49048000       2.48572000      -2.90913000
O        1.54957000       4.50817000      -1.51742000
O        1.30950000       4.15291000       1.09705000
O        2.83604000       6.05775000       0.15493000
O        3.57202000       3.56727000      -0.12571000
O       -4.51293000      -1.55433000      -1.51742000
O       -4.15766000      -1.31425000       1.09705000
O       -6.06250000      -2.84079000       0.15493000
O       -3.57203000      -3.57678000      -0.12571000
O        1.90484000      -4.75775000      -4.13188000
O       -4.51293000       1.54482000      -1.51742000
O       -6.06250000       2.83128000       0.15493000
O        1.31435000      -1.31910000       3.68861000
O        4.51292000       1.54482000      -1.51742000
O        4.75300000       1.90008000      -4.13188000
O        3.22646000      -0.00475000      -3.18976000
O       -1.90484000      -4.75775000      -4.13188000
O       -2.49048000      -2.49523000      -2.90913000
O        1.30950000      -4.16242000       1.09705000
O        2.83604000      -6.06725000       0.15493000
O        3.57202000      -3.57678000      -0.12571000
O        0.00000000      -6.06725000       2.38281000
O        0.00000000      -3.23122000      -3.18976000
O        2.49047000      -2.49523000      -2.90913000
O       -1.54958000      -4.51768000      -1.51742000
O       -1.30950000      -4.16242000       1.09705000
O       -2.83604000      -6.06725000       0.15493000
O        0.00000000       3.56848000       3.27625000
O        0.00000000       2.46753000       5.64158000
O        1.31435000       1.30960000       3.68861000
O        1.90484000       4.74825000      -4.13188000
O        2.49047000       2.48572000      -2.90913000
H       -5.36047000       2.14588000      -4.86056000
H        6.97522000      -3.16223000       0.30989000
H        2.65757000      -0.00475000       6.60391000
H        5.36047000      -2.15539000      -4.86056000
H       -7.00887000      -0.00474900       2.63735000
H       -2.65757000      -0.00475000       6.60391000
H       -2.15063000       5.35572000      -4.86056000
H       -5.36047000      -2.15539000      -4.86056000
H        6.97522000       3.15273000       0.30989000
H        7.00887000      -0.00475000       2.63735000
H       -3.15748000       6.97047000       0.30989000
H        0.00000000       7.00411000       2.63735000
H        0.00000000      -2.66232000       6.60391000
H        3.15748000       6.97047000       0.30989000
H       -6.97522000      -3.16223000       0.30989000
H        2.15063000      -5.36523000      -4.86056000
H       -6.97522000       3.15273000       0.30989000
H        5.36047000       2.14588000      -4.86056000
H       -2.15063000      -5.36523000      -4.86056000
H        3.15748000      -6.97998000       0.30989000
H        0.00000000      -7.01362000       2.63735000
H       -3.15748000      -6.97998000       0.30989000
H        0.00000000       2.65281000       6.60391000
H        2.15063000       5.35572000      -4.86056000
