109
Properties=species:S:1:pos:R:3 pbc="F F F"
Sr      -0.00967100      -0.02996700       0.02642000
Si      -2.16941000      -0.00426000       4.06710000
Si      -1.50254000       3.75085000      -2.92867000
Si       2.30593000       4.55716000      -0.09371000
Si      -4.56289000      -2.31165000      -0.09371000
Si      -4.50954000      -0.00426700       1.97095000
Si       1.49961000      -3.75937000      -2.92867000
Al      -2.30885000      -4.56569000      -0.09371000
Si      -0.00146000       2.16369000       4.06710000
Si       1.49961000       3.75085000      -2.92867000
Si      -2.30885000       4.55716000      -0.09371000
Si      -0.00146100       4.50381000       1.97095000
Al      -0.00146000      -2.17221000       4.06710000
Si       3.75365000       1.49681000      -2.92867000
Si      -1.50254000      -3.75937000      -2.92867000
Si       2.30593000      -4.56569000      -0.09371000
Si      -0.00146000      -4.51234000       1.97095000
Si      -3.75657000      -1.50534000      -2.92867000
Si      -4.56289000       2.30313000      -0.09371000
Si      -3.75657000       1.49681000      -2.92867000
Si       4.55996000      -2.31165000      -0.09371000
Si       2.16649000      -0.00426000       4.06710000
Si       3.75365000      -1.50534000      -2.92867000
Si       4.55996000       2.30313000      -0.09371000
Si       4.50661000      -0.00426000       1.97095000
O       -4.75446000       1.90058000      -4.12566000
O        4.51146000      -1.55384000      -1.51119000
O        4.15620000      -1.31376000       1.10328000
O        6.06104000      -2.84030000       0.16115000
O        3.57178000      -0.00426000       3.28247000
O        2.47083000      -0.00426000       5.64781000
O        4.75154000      -1.90910000      -4.12566000
O       -1.31096000       4.15340000       1.10328000
O       -6.06396000      -0.00425400       2.38903000
O        1.54811000      -4.51719000      -1.51119000
O       -4.15912000       1.30524000       1.10328000
O       -3.57470000      -0.00425900       3.28247000
O       -2.47375000      -0.00426000       5.64781000
O       -1.55104000       4.50866000      -1.51119000
O       -1.31581000      -1.31861000       3.69483000
O       -1.31581000       1.31009000       3.69483000
O       -1.90630000       4.74874000      -4.12566000
O       -0.00146000       3.22220000      -3.18353000
O       -4.75446000      -1.90910000      -4.12566000
O       -3.22792000      -0.00426000      -3.18353000
O        4.15620000       1.30524000       1.10328000
O        6.06104000       2.83178000       0.16115000
O        6.06104000      -0.00426000       2.38903000
O       -2.83750000       6.05824000       0.16115000
O       -3.57349000       3.56776000      -0.11948000
O       -0.00145900       6.05824000       2.38903000
O       -0.00146000      -3.57750000       3.28247000
O       -0.00146000      -2.47655000       5.64781000
O       -2.49194000       2.48621000      -2.90290000
O        1.54811000       4.50866000      -1.51119000
O        1.30804000       4.15340000       1.10328000
O        2.83458000       6.05824000       0.16115000
O        3.57056000       3.56776000      -0.11948000
O       -4.51439000      -1.55384000      -1.51119000
O       -4.15912000      -1.31376000       1.10328000
O       -6.06396000      -2.84030000       0.16115000
O       -3.57349000      -3.57629000      -0.11948000
O        1.90338000      -4.75726000      -4.12566000
O       -4.51439000       1.54531000      -1.51119000
O       -6.06396000       2.83178000       0.16115000
O        1.31289000      -1.31861000       3.69483000
O        4.51146000       1.54531000      -1.51119000
O        4.75154000       1.90058000      -4.12566000
O        3.22500000      -0.00426000      -3.18353000
O       -1.90630000      -4.75726000      -4.12566000
O       -2.49194000      -2.49474000      -2.90290000
O        1.30804000      -4.16192000       1.10328000
O        2.83458000      -6.06676000       0.16115000
O        3.57056000      -3.57629000      -0.11948000
O       -0.00146000      -6.06676000       2.38903000
O       -0.00146000      -3.23072000      -3.18353000
O        2.48901000      -2.49474000      -2.90290000
O       -1.55104000      -4.51719000      -1.51119000
O       -1.31096000      -4.16192000       1.10328000
O       -2.83750000      -6.06676000       0.16115000
O       -0.00146000       3.56898000       3.28247000
O       -0.00146000       2.46803000       5.64781000
O        1.31289000       1.31009000       3.69483000
O        1.90338000       4.74874000      -4.12566000
O        2.48901000       2.48621000      -2.90290000
H       -5.36193000       2.14637000      -4.85433000
H        6.97376000      -3.16174000       0.31612000
H        2.65611000      -0.00426000       6.61013000
H        5.35901000      -2.15489000      -4.85433000
H       -7.01033000      -0.00426100       2.64357000
H       -2.65903000      -0.00426000       6.61013000
H       -2.15209000       5.35621000      -4.85433000
H       -5.36193000      -2.15489000      -4.85433000
H        6.97376000       3.15322000       0.31612000
H        7.00741000      -0.00426000       2.64357000
H       -3.15894000       6.97096000       0.31612000
H       -0.00146000       7.00461000       2.64357000
H       -0.00146000      -2.66183000       6.61013000
H        3.15602000       6.97096000       0.31612000
H       -6.97668000      -3.16174000       0.31612000
H        2.14917000      -5.36473000      -4.85433000
H       -6.97668000       3.15322000       0.31612000
H        5.35901000       2.14637000      -4.85433000
H       -2.15209000      -5.36473000      -4.85433000
H        3.15602000      -6.97948000       0.31612000
H       -0.00146000      -7.01313000       2.64357000
H       -3.15894000      -6.97948000       0.31612000
H       -0.00146000       2.65331000       6.61013000
H        2.14917000       5.35621000      -4.85433000
