145
Properties=species:S:1:pos:R:3 pbc="F F F"
Sr       0.01649800      -0.00093100       0.03939900
Si      -3.34856000       1.55498000       5.53880000
Al       3.75381000      -3.34961000       1.55753000
Si      -3.75170000       3.34961000      -1.55243000
Si       5.53730000       1.55498000       3.35216000
Si      -5.53519000      -1.55498000       3.35216000
Si       3.35067000      -1.55498000      -5.53369000
Si       1.55604000       3.34961000       3.75531000
Si      -1.55392000      -3.34961000      -3.75020000
Si       3.75381000      -3.34961000      -1.55243000
Si       3.35067000       1.55498000      -5.53369000
Si      -3.75170000       3.34961000       1.55753000
Si       5.53730000       1.55498000      -3.34706000
Si      -5.53519000       1.55498000      -3.34706000
Si      -3.34856000      -1.55498000       5.53880000
Si       1.55604000       3.34961000      -3.75020000
Si      -3.75170000      -3.34961000       1.55753000
Si      -1.55392000      -3.34961000       3.75531000
Si       5.53730000      -1.55498000       3.35216000
Si       3.35067000       1.55498000       5.53880000
Si      -5.53519000       1.55498000       3.35216000
Si      -3.34856000      -1.55498000      -5.53369000
Si       1.55604000      -3.34961000       3.75531000
Si       3.75381000       3.34961000      -1.55243000
Si      -1.55392000       3.34961000      -3.75020000
Si      -3.34856000       1.55498000      -5.53369000
Si      -3.75170000      -3.34961000      -1.55243000
Si       5.53730000      -1.55498000      -3.34706000
Si      -5.53519000      -1.55498000      -3.34706000
Si       1.55604000      -3.34961000      -3.75020000
Si       3.35067000      -1.55498000       5.53880000
Si       3.75381000       3.34961000       1.55753000
Al      -1.55392000       3.34961000       3.75531000
O       -6.92668000       2.36126000       3.44134000
O        1.70652000       4.74111000      -4.54534000
O        2.36232000       3.43879000      -2.35871000
O       -3.44702000      -3.06909000       0.00255000
O       -4.54684000      -4.74111000       1.70801000
O       -2.36021000      -3.43879000       2.36382000
O        0.00106000      -3.06909000       3.45063000
O       -1.70440000      -4.74111000       4.55045000
O       -2.15028000      -2.15133000      -4.64195000
O       -4.74005000      -1.70546000       4.74366000
O       -4.64344000      -2.15133000       2.15388000
O       -2.36021000      -3.43879000      -2.35871000
O        4.54895000      -4.74111000      -1.70291000
O        4.64556000      -2.15133000      -2.14878000
O        2.36232000      -3.43879000      -2.35871000
O        4.74216000       1.70546000      -4.73855000
O       -5.83987000       0.00000000       3.07164000
O       -3.06803000       0.00000000       5.84347000
O       -4.74005000       1.70546000       4.74366000
O        3.44913000      -3.06909000       0.00255000
O       -2.15028000       2.15133000       4.64705000
O       -3.43773000       2.36126000       6.93029000
O        4.54895000      -4.74111000       1.70801000
O        4.64556000      -2.15133000       2.15388000
O       -6.92668000       2.36126000      -3.43624000
O       -2.15028000      -2.15133000       4.64705000
O        1.70652000      -4.74111000      -4.54534000
O        3.07014000       0.00000000      -5.83837000
O        4.74216000      -1.70546000      -4.73855000
O        2.15239000      -2.15133000      -4.64195000
O        3.43984000      -2.36126000      -6.92518000
O        0.00106000       3.06909000       3.45063000
O        1.70652000       4.74111000       4.55045000
O        2.15239000       2.15133000       4.64705000
O        2.36232000       3.43879000       2.36382000
O        0.00106000      -3.06909000      -3.44553000
O       -1.70440000      -4.74111000      -4.54534000
O        3.43984000      -2.36126000       6.93029000
O        4.54895000       4.74111000       1.70801000
O       -1.70440000       4.74111000       4.55045000
O        2.36232000      -3.43879000       2.36382000
O       -3.44702000       3.06909000       0.00255000
O       -4.54684000       4.74111000      -1.70291000
O       -4.64344000       2.15133000      -2.14878000
O       -2.36021000       3.43879000      -2.35871000
O        5.84198000       0.00000000       3.07164000
O        4.74216000       1.70546000       4.74366000
O        4.64556000       2.15133000       2.15388000
O        6.92879000       2.36126000       3.44134000
O       -6.92668000      -2.36126000       3.44134000
O        1.70652000      -4.74111000       4.55045000
O        2.15239000      -2.15133000       4.64705000
O        3.44913000       3.06909000       0.00255000
O       -3.06803000       0.00000000      -5.83837000
O       -4.74005000      -1.70546000      -4.73855000
O       -3.43773000      -2.36126000      -6.92518000
O        4.74216000      -1.70546000       4.74366000
O        6.92879000      -2.36126000       3.44134000
O        3.07014000       0.00000000       5.84347000
O        3.43984000       2.36126000       6.93029000
O       -3.43773000      -2.36126000       6.93029000
O        0.00106000       3.06909000      -3.44553000
O        2.15239000       2.15133000      -4.64195000
O        3.43984000       2.36126000      -6.92518000
O       -4.54684000       4.74111000       1.70801000
O       -4.64344000       2.15133000       2.15388000
O       -2.36021000       3.43879000       2.36382000
O        5.84198000       0.00000000      -3.06653000
O        4.64556000       2.15133000      -2.14878000
O        6.92879000       2.36126000      -3.43624000
O       -5.83987000       0.00000000      -3.06653000
O       -4.74005000       1.70546000      -4.73855000
O        4.54895000       4.74111000      -1.70291000
O       -1.70440000       4.74111000      -4.54534000
O       -2.15028000       2.15133000      -4.64195000
O       -3.43773000       2.36126000      -6.92518000
O       -4.54684000      -4.74111000      -1.70291000
O       -4.64344000      -2.15133000      -2.14878000
O        6.92879000      -2.36126000      -3.43624000
O       -6.92668000      -2.36126000      -3.43624000
H       -7.77332000       2.85184000       3.49560000
H        1.79813000       5.58826000      -5.02943000
H       -5.03092000      -5.58826000       1.79963000
H       -1.79602000      -5.58826000       5.03453000
H        5.03304000      -5.58826000      -1.79452000
H       -3.49199000       2.85184000       7.77692000
H        5.03304000      -5.58826000       1.79963000
H       -7.77332000       2.85184000      -3.49049000
H        1.79813000      -5.58826000      -5.02943000
H        3.49410000      -2.85184000      -7.77182000
H        1.79813000       5.58826000       5.03453000
H       -1.79602000      -5.58826000      -5.02943000
H        3.49410000      -2.85184000       7.77692000
H        5.03304000       5.58826000       1.79963000
H       -1.79602000       5.58826000       5.03453000
H       -5.03092000       5.58826000      -1.79452000
H        7.77543000       2.85184000       3.49560000
H       -7.77332000      -2.85184000       3.49560000
H        1.79813000      -5.58826000       5.03453000
H       -3.49199000      -2.85184000      -7.77182000
H        7.77543000      -2.85184000       3.49560000
H        3.49410000       2.85184000       7.77692000
H       -3.49199000      -2.85184000       7.77692000
H        3.49410000       2.85184000      -7.77182000
H       -5.03092000       5.58826000       1.79963000
H        7.77543000       2.85184000      -3.49049000
H        5.03304000       5.58826000      -1.79452000
H       -1.79602000       5.58826000      -5.02943000
H       -3.49199000       2.85184000      -7.77182000
H       -5.03092000      -5.58826000      -1.79452000
H        7.77543000      -2.85184000      -3.49049000
H       -7.77332000      -2.85184000      -3.49049000
