109
Properties=species:S:1:pos:R:3 pbc="F F F"
Sr       0.02502400      -0.01041300      -0.02831600
Si      -2.16462000      -0.00143000       4.06088000
Si      -1.49775000       3.75368000      -2.93490000
Si       2.31072000       4.56000000      -0.09993000
Si      -4.55810000      -2.30882000      -0.09993000
Si      -4.50475000      -0.00142600       1.96472000
Al       1.50440000      -3.75654000      -2.93490000
Si      -2.30406000      -4.56285000      -0.09993000
Si       0.00333000       2.16652000       4.06088000
Si       1.50440000       3.75368000      -2.93490000
Si      -2.30406000       4.56000000      -0.09993000
Si       0.00332500       4.50665000       1.96472000
Si       0.00333000      -2.16938000       4.06088000
Al       3.75844000       1.49965000      -2.93490000
Si      -1.49775100      -3.75654000      -2.93490000
Si       2.31072000      -4.56285000      -0.09993000
Si       0.00333000      -4.50950000       1.96472000
Si      -3.75178000      -1.50249900      -2.93490000
Si      -4.55810000       2.30596000      -0.09993000
Si      -3.75178000       1.49965000      -2.93490000
Si       4.56475000      -2.30882000      -0.09993000
Si       2.17128000      -0.00143000       4.06088000
Si       3.75844000      -1.50250000      -2.93490000
Si       4.56475000       2.30596000      -0.09993000
Si       4.51140000      -0.00143000       1.96472000
O       -4.74967000       1.90341000      -4.13188000
O        4.51625000      -1.55100000      -1.51742000
O        4.16099000      -1.31093000       1.09705000
O        6.06583000      -2.83746000       0.15493000
O        3.57657000      -0.00143000       3.27625000
O        2.47562000      -0.00143000       5.64158000
O        4.75633000      -1.90626000      -4.13188000
O       -1.30617000       4.15623000       1.09705000
O       -6.05917000      -0.00143400       2.38281000
O        1.55290000      -4.51435000      -1.51742000
O       -4.15433000       1.30807000       1.09705000
O       -3.56991000      -0.00143000       3.27625000
O       -2.46896000      -0.00143000       5.64158000
O       -1.54625000       4.51150000      -1.51742000
O       -1.31102000      -1.31578000       3.68861000
O       -1.31102000       1.31292000       3.68861000
O       -1.90151000       4.75157000      -4.13188000
O        0.00333000       3.22504000      -3.18976000
O       -4.74967000      -1.90626000      -4.13188000
O       -3.22313000      -0.00143000      -3.18976000
O        4.16099000       1.30807000       1.09705000
O        6.06583000       2.83461000       0.15493000
O        6.06583000      -0.00143000       2.38281000
O       -2.83271000       6.06107000       0.15493000
O       -3.56870000       3.57060000      -0.12571000
O        0.00333500       6.06107000       2.38281000
O        0.00333100      -3.57467000       3.27625000
O        0.00333000      -2.47372000       5.64158000
O       -2.48715000       2.48905000      -2.90913000
O        1.55290000       4.51150000      -1.51742000
O        1.31283000       4.15623000       1.09705000
O        2.83937000       6.06107000       0.15493000
O        3.57535000       3.57060000      -0.12571000
O       -4.50960000      -1.55100000      -1.51742000
O       -4.15433000      -1.31093000       1.09705000
O       -6.05917000      -2.83746000       0.15493000
O       -3.56870000      -3.57345000      -0.12571000
O        1.90817000      -4.75443000      -4.13188000
O       -4.50960000       1.54815000      -1.51742000
O       -6.05917000       2.83461000       0.15493000
O        1.31768000      -1.31578000       3.68861000
O        4.51625000       1.54815000      -1.51742000
O        4.75633000       1.90341000      -4.13188000
O        3.22979000      -0.00143000      -3.18976000
O       -1.90151000      -4.75443000      -4.13188000
O       -2.48715000      -2.49190000      -2.90913000
O        1.31283000      -4.15909000       1.09705000
O        2.83937000      -6.06393000       0.15493000
O        3.57535000      -3.57345000      -0.12571000
O        0.00333000      -6.06393000       2.38281000
O        0.00333000      -3.22789000      -3.18976000
O        2.49380000      -2.49190000      -2.90913000
O       -1.54625000      -4.51435000      -1.51742000
O       -1.30617000      -4.15909000       1.09705000
O       -2.83271000      -6.06393000       0.15493000
O        0.00333100       3.57181000       3.27625000
O        0.00333000       2.47086000       5.64158000
O        1.31768000       1.31292000       3.68861000
O        1.90817000       4.75157000      -4.13188000
O        2.49380000       2.48905000      -2.90913000
H       -5.35714000       2.14920000      -4.86056000
H        6.97855000      -3.15891000       0.30989000
H        2.66089000      -0.00143000       6.60391000
H        5.36380000      -2.15206000      -4.86056000
H       -7.00554000      -0.00142900       2.63735000
H       -2.65424000      -0.00143000       6.60391000
H       -2.14730000       5.35904000      -4.86056000
H       -5.35714000      -2.15206000      -4.86056000
H        6.97855000       3.15605000       0.30989000
H        7.01219000      -0.00143000       2.63735000
H       -3.15415000       6.97379000       0.30989000
H        0.00332800       7.00744000       2.63735000
H        0.00333000      -2.65899000       6.60391000
H        3.16081000       6.97379000       0.30989000
H       -6.97189000      -3.15891000       0.30989000
H        2.15396000      -5.36190000      -4.86056000
H       -6.97189000       3.15605000       0.30989000
H        5.36380000       2.14920000      -4.86056000
H       -2.14730000      -5.36190000      -4.86056000
H        3.16081000      -6.97665000       0.30989000
H        0.00333000      -7.01029000       2.63735000
H       -3.15415000      -6.97665000       0.30989000
H        0.00333000       2.65614000       6.60391000
H        2.15396000       5.35904000      -4.86056000
