145
Properties=species:S:1:pos:R:3 pbc="F F F"
Sr       0.03748900       0.02612900       0.01921600
Si      -3.34515000       1.55734000       5.53860000
Si       3.75722000      -3.34726000       1.55734000
Si      -3.74829000       3.35197000      -1.55262000
Al       5.54071000       1.55734000       3.35197000
Si      -5.53178000      -1.55262000       3.35197000
Si       3.35408000      -1.55262000      -5.53389000
Si       1.55944000       3.35197000       3.75511000
Si      -1.55051000      -3.34726000      -3.75040000
Si       3.75722000      -3.34726000      -1.55262000
Si       3.35408000       1.55734000      -5.53389000
Si      -3.74829000       3.35197000       1.55734000
Si       5.54071000       1.55734000      -3.34726000
Si      -5.53178000       1.55734000      -3.34726000
Si      -3.34515000      -1.55262000       5.53860000
Si       1.55944000       3.35197000      -3.75040000
Si      -3.74829000      -3.34726000       1.55734000
Si      -1.55051000      -3.34726000       3.75511000
Si       5.54071000      -1.55262000       3.35197000
Si       3.35408000       1.55734000       5.53860000
Si      -5.53178000       1.55734000       3.35197000
Si      -3.34515000      -1.55262000      -5.53389000
Si       1.55944000      -3.34726000       3.75511000
Si       3.75722000       3.35197000      -1.55262000
Si      -1.55051000       3.35197000      -3.75040000
Si      -3.34515000       1.55734000      -5.53389000
Si      -3.74829000      -3.34726000      -1.55262000
Si       5.54071000      -1.55262000      -3.34726000
Si      -5.53178000      -1.55262000      -3.34726000
Si       1.55944000      -3.34726000      -3.75040000
Si       3.35408000      -1.55262000       5.53860000
Al       3.75722000       3.35197000       1.55734000
Si      -1.55051000       3.35197000       3.75511000
O       -6.92327000       2.36362000       3.44115000
O        1.70993000       4.74346000      -4.54554000
O        2.36573000       3.44115000      -2.35891000
O       -3.44361000      -3.06673000       0.00236000
O       -4.54343000      -4.73875000       1.70782000
O       -2.35680000      -3.43643000       2.36362000
O        0.00447000      -3.06673000       3.45043000
O       -1.70099000      -4.73875000       4.55025000
O       -2.14687000      -2.14897000      -4.64214000
O       -4.73664000      -1.70310000       4.74346000
O       -4.64003000      -2.14897000       2.15369000
O       -2.35680000      -3.43643000      -2.35891000
O        4.55236000      -4.73875000      -1.70310000
O        4.64897000      -2.14897000      -2.14897000
O        2.36573000      -3.43643000      -2.35891000
O        4.74557000       1.70782000      -4.73875000
O       -5.83646000       0.00236000       3.07144000
O       -3.06462000       0.00236000       5.84328000
O       -4.73664000       1.70782000       4.74346000
O        3.45254000      -3.06673000       0.00236000
O       -2.14687000       2.15369000       4.64686000
O       -3.43432000       2.36362000       6.93009000
O        4.55236000      -4.73875000       1.70782000
O        4.64897000      -2.14897000       2.15369000
O       -6.92327000       2.36362000      -3.43643000
O       -2.14687000      -2.14897000       4.64686000
O        1.70993000      -4.73875000      -4.54554000
O        3.07355000       0.00236000      -5.83857000
O        4.74557000      -1.70310000      -4.73875000
O        2.15580000      -2.14897000      -4.64214000
O        3.44325000      -2.35891000      -6.92538000
O        0.00447000       3.07144000       3.45043000
O        1.70993000       4.74346000       4.55025000
O        2.15580000       2.15369000       4.64686000
O        2.36573000       3.44115000       2.36362000
O        0.00447000      -3.06673000      -3.44572000
O       -1.70099000      -4.73875000      -4.54554000
O        3.44325000      -2.35891000       6.93009000
O        4.55236000       4.74346000       1.70782000
O       -1.70099000       4.74346000       4.55025000
O        2.36573000      -3.43643000       2.36362000
O       -3.44361000       3.07144000       0.00236000
O       -4.54343000       4.74346000      -1.70310000
O       -4.64003000       2.15369000      -2.14897000
O       -2.35680000       3.44115000      -2.35891000
O        5.84539000       0.00236000       3.07144000
O        4.74557000       1.70782000       4.74346000
O        4.64897000       2.15369000       2.15369000
O        6.93220000       2.36362000       3.44115000
O       -6.92327000      -2.35891000       3.44115000
O        1.70993000      -4.73875000       4.55025000
O        2.15580000      -2.14897000       4.64686000
O        3.45254000       3.07144000       0.00236000
O       -3.06462000       0.00236000      -5.83857000
O       -4.73664000      -1.70310000      -4.73875000
O       -3.43432000      -2.35891000      -6.92538000
O        4.74557000      -1.70310000       4.74346000
O        6.93220000      -2.35891000       3.44115000
O        3.07355000       0.00236000       5.84328000
O        3.44325000       2.36362000       6.93009000
O       -3.43432000      -2.35891000       6.93009000
O        0.00447000       3.07144000      -3.44572000
O        2.15580000       2.15369000      -4.64214000
O        3.44325000       2.36362000      -6.92538000
O       -4.54343000       4.74346000       1.70782000
O       -4.64003000       2.15369000       2.15369000
O       -2.35680000       3.44115000       2.36362000
O        5.84539000       0.00236000      -3.06673000
O        4.64897000       2.15369000      -2.14897000
O        6.93220000       2.36362000      -3.43643000
O       -5.83646000       0.00236000      -3.06673000
O       -4.73664000       1.70782000      -4.73875000
O        4.55236000       4.74346000      -1.70310000
O       -1.70099000       4.74346000      -4.54554000
O       -2.14687000       2.15369000      -4.64214000
O       -3.43432000       2.36362000      -6.92538000
O       -4.54343000      -4.73875000      -1.70310000
O       -4.64003000      -2.14897000      -2.14897000
O        6.93220000      -2.35891000      -3.43643000
O       -6.92327000      -2.35891000      -3.43643000
H       -7.76991000       2.85420000       3.49540000
H        1.80154000       5.59062000      -5.02962000
H       -5.02752000      -5.58590000       1.79943000
H       -1.79261000      -5.58590000       5.03434000
H        5.03645000      -5.58590000      -1.79472000
H       -3.48858000       2.85420000       7.77673000
H        5.03645000      -5.58590000       1.79943000
H       -7.76991000       2.85420000      -3.49069000
H        1.80154000      -5.58590000      -5.02962000
H        3.49751000      -2.84948000      -7.77201000
H        1.80154000       5.59062000       5.03434000
H       -1.79261000      -5.58590000      -5.02962000
H        3.49751000      -2.84948000       7.77673000
H        5.03645000       5.59062000       1.79943000
H       -1.79261000       5.59062000       5.03434000
H       -5.02752000       5.59062000      -1.79472000
H        7.77884000       2.85420000       3.49540000
H       -7.76991000      -2.84948000       3.49540000
H        1.80154000      -5.58590000       5.03434000
H       -3.48858000      -2.84948000      -7.77201000
H        7.77884000      -2.84948000       3.49540000
H        3.49751000       2.85420000       7.77673000
H       -3.48858000      -2.84948000       7.77673000
H        3.49751000       2.85420000      -7.77201000
H       -5.02752000       5.59062000       1.79943000
H        7.77884000       2.85420000      -3.49069000
H        5.03645000       5.59062000      -1.79472000
H       -1.79261000       5.59062000      -5.02962000
H       -3.48858000       2.85420000      -7.77201000
H       -5.02752000      -5.58590000      -1.79472000
H        7.77884000      -2.84948000      -3.49069000
H       -7.76991000      -2.84948000      -3.49069000
