109
Properties=species:S:1:pos:R:3 pbc="F F F"
Ba      -0.02875000       0.01634100       0.02303800
Si      -1.53075000      -4.42171000       1.26522000
Si      -4.59588000      -0.88687000      -1.25093000
Si      -3.06977000      -3.53017000      -1.25093000
Si      -3.06805000      -0.00577000      -3.74180000
Si      -1.54280000      -2.64758000      -3.74180000
Al      -3.07235000       0.00466000       3.74205000
Si       1.52319000      -4.42171000       1.26522000
Si      -1.53591000      -2.65653000       3.74205000
Al      -3.07149000       3.53652000       1.26522000
Si       3.06221000      -3.53017000      -1.25093000
Si      -1.52989000       4.42358000      -1.25093000
Si       1.53524000      -2.64758000      -3.74180000
Si      -1.52903000       2.65989000      -3.74180000
Si       1.52836000      -2.65653000       3.74205000
Si      -1.54022000       2.65840000       3.74205000
Si       4.59091000       0.89173000       1.26522000
Si       4.58832000      -0.88687000      -1.25093000
Si       3.06049000      -0.00577000      -3.74180000
Si       3.06480000       0.00466000       3.74205000
Si       3.06394000       3.53652000       1.26522000
Si       1.52233000       4.42358000      -1.25093000
Si       1.52147000       2.65989000      -3.74180000
Si       1.53266000       2.65840000       3.74205000
Si      -4.59846000       0.89173000       1.26522000
O        1.88815000       1.09448000       3.59603000
O        3.57694000      -0.02963000       5.26690000
O        2.49068000       3.51564000       2.77041000
O        4.30342000       4.55925000       1.17817000
O        1.90192000       4.01061000       0.25708000
O        2.50445000       5.59689000      -1.75360000
O        1.68329000       3.14293000      -2.21414000
O        4.27071000      -2.46570000      -1.29867000
O       -2.51372000      -1.44595000       3.32925000
O       -3.58450000      -0.02963000       5.26690000
O       -1.89571000       1.09448000       3.59603000
O       -0.00378000      -4.11161000       0.86084000
O       -1.79930000      -3.91482000       2.77041000
O       -4.42803000      -0.35165000       0.25708000
O       -1.79672000      -6.00650000       1.17817000
O       -2.52233000      -3.65242000       0.25708000
O       -6.10305000      -0.62299000      -1.75360000
O       -3.56728000      -0.10715000      -2.21414000
O        6.09550000      -0.62299000      -1.75360000
O        3.55973000      -0.10715000      -2.21414000
O        2.50359000       3.52012000      -4.68536000
O        1.75904000       3.11907000       5.26690000
O       -6.10391000       1.45378000       1.17817000
O       -2.51200000       5.59689000      -1.75360000
O       -1.69085000       3.14293000      -2.21414000
O       -0.00378000       4.93793000      -1.29867000
O        1.78916000      -3.92823000      -4.68536000
O        2.48895000      -1.43700000      -4.21358000
O       -4.27826000      -2.46570000      -1.29867000
O       -3.59483000      -4.96737000      -1.75360000
O       -1.88021000      -3.02924000      -2.21414000
O       -4.30408000       0.41465000      -4.68536000
O       -2.49651000      -1.43700000      -4.21358000
O       -1.90431000       1.10045000      -3.85694000
O       -1.79672000      -3.92823000      -4.68536000
O       -0.00464000      -2.19287000      -3.85694000
O       -4.29376000       0.40570000       2.77041000
O        1.79175000      -3.91482000       2.77041000
O        4.29653000       0.41465000      -4.68536000
O        1.89762000       1.09896000      -3.85694000
O       -2.51114000       3.52012000      -4.68536000
O       -0.00378000       2.88054000      -4.21358000
O        2.50531000      -1.44744000       3.32925000
O        1.81413000      -3.08291000       5.26690000
O       -0.00292000       2.89992000       3.32925000
O       -1.76659000       3.11907000       5.26690000
O        3.55887000       2.05907000       0.86084000
O        4.28620000       0.40570000       2.77041000
O        6.09636000       1.45378000       1.17817000
O        4.42048000      -0.35165000       0.25708000
O        1.78916000      -6.00650000       1.17817000
O        2.51478000      -3.65242000       0.25708000
O       -0.00378000      -2.18243000       3.59603000
O       -1.82168000      -3.08291000       5.26690000
O       -3.56642000       2.05907000       0.86084000
O       -2.49823000       3.51564000       2.77041000
O       -4.31097000       4.55925000       1.17817000
O       -1.90948000       4.01061000       0.25708000
O        3.58727000      -4.96737000      -1.75360000
O        1.87266000      -3.02924000      -2.21414000
H        3.88889000      -0.05051000       6.19569000
H        5.05821000       5.18205000       1.12515000
H        3.10205000       6.31083000      -2.05946000
H       -3.89645000      -0.05051000       6.19569000
H       -1.95869000      -6.97156000       1.12515000
H       -7.02015000      -0.46242000      -2.05946000
H        7.01259000      -0.46242000      -2.05946000
H        3.10108000       4.04346000      -5.25939000
H        1.89693000       3.39967000       6.19569000
H       -7.02067000       1.79605000       1.12515000
H       -3.10961000       6.31083000      -2.05946000
H        1.94364000      -4.70735000      -5.25939000
H       -3.91432000      -5.84188000      -2.05946000
H       -5.05606000       0.67042000      -5.25939000
H       -1.95120000      -4.70735000      -5.25939000
H        5.04850000       0.67042000      -5.25939000
H       -3.10864000       4.04346000      -5.25939000
H        1.98819000      -3.34263000       6.19569000
H       -1.90448000       3.39967000       6.19569000
H        7.01311000       1.79605000       1.12515000
H        1.95113000      -6.97156000       1.12515000
H       -1.99574000      -3.34263000       6.19569000
H       -5.06576000       5.18205000       1.12515000
H        3.90676000      -5.84188000      -2.05946000
