109
Properties=species:S:1:pos:R:3 pbc="F F F"
Sr      -0.02825200       0.01601200       0.02264600
Si      -1.53086000      -4.42165000       1.26530000
Si      -4.59599000      -0.88681000      -1.25085000
Si      -3.06988000      -3.53011000      -1.25085000
Si      -3.06816000      -0.00571000      -3.74172000
Si      -1.54291000      -2.64752000      -3.74172000
Al      -3.07246000       0.00472000       3.74213000
Si       1.52309000      -4.42165000       1.26530000
Si      -1.53602000      -2.65647000       3.74213000
Al      -3.07160000       3.53658000       1.26530000
Si       3.06211000      -3.53011000      -1.25085000
Si      -1.53000000       4.42364000      -1.25085000
Si       1.53514000      -2.64752000      -3.74172000
Si      -1.52913000       2.65995000      -3.74172000
Si       1.52825000      -2.65647000       3.74213000
Si      -1.54032000       2.65846000       3.74213000
Si       4.59080000       0.89179000       1.26530000
Si       4.58822000      -0.88681000      -1.25085000
Si       3.06038000      -0.00571000      -3.74172000
Si       3.06469000       0.00472000       3.74213000
Si       3.06383000       3.53658000       1.26530000
Si       1.52222000       4.42364000      -1.25085000
Si       1.52136000       2.65995000      -3.74172000
Si       1.53255000       2.65846000       3.74213000
Si      -4.59857000       0.89179000       1.26530000
O        1.88804000       1.09454000       3.59611000
O        3.57683000      -0.02957000       5.26698000
O        2.49057000       3.51571000       2.77049000
O        4.30331000       4.55931000       1.17825000
O        1.90182000       4.01067000       0.25716000
O        2.50434000       5.59695000      -1.75352000
O        1.68318000       3.14299000      -2.21406000
O        4.27060000      -2.46564000      -1.29859000
O       -2.51383000      -1.44589000       3.32933000
O       -3.58461000      -0.02957000       5.26698000
O       -1.89581000       1.09454000       3.59611000
O       -0.00389000      -4.11155000       0.86092000
O       -1.79941000      -3.91475000       2.77049000
O       -4.42814000      -0.35159000       0.25716000
O       -1.79683000      -6.00643000       1.17825000
O       -2.52244000      -3.65236000       0.25716000
O       -6.10316000      -0.62293000      -1.75352000
O       -3.56739000      -0.10709000      -2.21406000
O        6.09539000      -0.62293000      -1.75352000
O        3.55962000      -0.10709000      -2.21406000
O        2.50348000       3.52018000      -4.68528000
O        1.75893000       3.11914000       5.26698000
O       -6.10402000       1.45384000       1.17825000
O       -2.51211000       5.59695000      -1.75352000
O       -1.69096000       3.14299000      -2.21406000
O       -0.00389000       4.93799000      -1.29859000
O        1.78906000      -3.92817000      -4.68528000
O        2.48885000      -1.43694000      -4.21350000
O       -4.27837000      -2.46564000      -1.29859000
O       -3.59493000      -4.96730000      -1.75352000
O       -1.88032000      -3.02918000      -2.21406000
O       -4.30419000       0.41471000      -4.68528000
O       -2.49662000      -1.43694000      -4.21350000
O       -1.90442000       1.10051000      -3.85686000
O       -1.79683000      -3.92817000      -4.68528000
O       -0.00475000      -2.19281000      -3.85686000
O       -4.29386000       0.40577000       2.77049000
O        1.79164000      -3.91475000       2.77049000
O        4.29642000       0.41471000      -4.68528000
O        1.89751000       1.09902000      -3.85686000
O       -2.51125000       3.52018000      -4.68528000
O       -0.00389000       2.88060000      -4.21350000
O        2.50520000      -1.44738000       3.32933000
O        1.81402000      -3.08285000       5.26698000
O       -0.00302000       2.89998000       3.32933000
O       -1.76670000       3.11914000       5.26698000
O        3.55876000       2.05913000       0.86092000
O        4.28609000       0.40577000       2.77049000
O        6.09625000       1.45384000       1.17825000
O        4.42037000      -0.35159000       0.25716000
O        1.78906000      -6.00643000       1.17825000
O        2.51467000      -3.65236000       0.25716000
O       -0.00389000      -2.18237000       3.59611000
O       -1.82179000      -3.08285000       5.26698000
O       -3.56653000       2.05913000       0.86092000
O       -2.49834000       3.51571000       2.77049000
O       -4.31108000       4.55931000       1.17825000
O       -1.90959000       4.01067000       0.25716000
O        3.58716000      -4.96730000      -1.75352000
O        1.87255000      -3.02918000      -2.21406000
H        3.88878000      -0.05045000       6.19577000
H        5.05810000       5.18211000       1.12523000
H        3.10194000       6.31089000      -2.05938000
H       -3.89655000      -0.05045000       6.19577000
H       -1.95879000      -6.97150000       1.12523000
H       -7.02025000      -0.46236000      -2.05938000
H        7.01248000      -0.46236000      -2.05938000
H        3.10097000       4.04352000      -5.25931000
H        1.89682000       3.39974000       6.19577000
H       -7.02078000       1.79611000       1.12523000
H       -3.10972000       6.31089000      -2.05938000
H        1.94354000      -4.70729000      -5.25931000
H       -3.91443000      -5.84182000      -2.05938000
H       -5.05617000       0.67049000      -5.25931000
H       -1.95131000      -4.70729000      -5.25931000
H        5.04839000       0.67049000      -5.25931000
H       -3.10874000       4.04352000      -5.25931000
H        1.98808000      -3.34257000       6.19577000
H       -1.90459000       3.39974000       6.19577000
H        7.01301000       1.79611000       1.12523000
H        1.95102000      -6.97150000       1.12523000
H       -1.99585000      -3.34257000       6.19577000
H       -5.06587000       5.18211000       1.12523000
H        3.90665000      -5.84182000      -2.05938000
