73
Properties=species:S:1:pos:R:3 pbc="F F F"
Ba       0.00002700      -0.00087900       0.04876500
Si       1.54973000       3.74261000      -1.54012000
Al       3.74261000      -1.54973000       1.54562000
Si      -1.54973000      -3.74260000       1.54562000
Si       1.54973000      -3.74260000       1.54562000
Si       1.54973000       3.74261000       1.54562000
Si      -1.54973000      -3.74260000      -1.54012000
Si       3.74261000      -1.54973000      -1.54012000
Si       1.54973000      -3.74260000      -1.54012000
Si       3.74261000       1.54973000       1.54562000
Si      -3.74260000       1.54973000      -1.54012000
Si       3.74261000       1.54973000      -1.54012000
Si      -1.54973000       3.74261000      -1.54012000
Al      -3.74260000       1.54973000       1.54562000
Si      -3.74260000      -1.54973000       1.54562000
Si      -1.54973000       3.74261000       1.54562000
Si      -3.74260000      -1.54973000      -1.54012000
O        4.93923000       2.06677000      -2.48575000
O       -2.41847000      -2.41847000      -1.82879000
O        0.00000000      -3.44275000      -1.85467000
O        2.06677000       4.93923000       2.49125000
O        2.41847000       2.41847000      -1.82879000
O        1.71367000       4.16997000       0.00275000
O        2.41847000      -2.41847000       1.83428000
O        0.00000000       3.44275000      -1.85467000
O        2.06677000       4.93923000      -2.48575000
O        4.16997000      -1.71367000       0.00275000
O        3.44275000       0.00000000       1.86016000
O       -1.71367000       4.16997000       0.00275000
O       -2.06677000       4.93923000      -2.48575000
O       -2.41847000       2.41847000       1.83428000
O       -3.44275000       0.00000000       1.86016000
O       -4.93923000       2.06677000       2.49125000
O        4.93923000      -2.06677000       2.49125000
O       -2.41847000      -2.41847000       1.83428000
O       -1.71367000      -4.16997000       0.00275000
O        0.00000000      -3.44275000       1.86016000
O       -2.06677000      -4.93923000       2.49125000
O        1.71367000      -4.16997000       0.00275000
O        2.06677000      -4.93923000       2.49125000
O        2.41847000       2.41847000       1.83428000
O        0.00000000       3.44275000       1.86016000
O       -2.06677000      -4.93923000      -2.48575000
O       -4.16997000      -1.71367000       0.00275000
O       -4.93923000      -2.06677000       2.49125000
O       -2.06677000       4.93923000       2.49125000
O       -4.93923000      -2.06677000      -2.48575000
O        2.41847000      -2.41847000      -1.82879000
O        3.44275000       0.00000000      -1.85467000
O        4.93923000      -2.06677000      -2.48575000
O        2.06677000      -4.93923000      -2.48575000
O        4.16997000       1.71367000       0.00275000
O        4.93923000       2.06677000       2.49125000
O       -2.41847000       2.41847000      -1.82879000
O       -4.16997000       1.71367000       0.00275000
O       -3.44275000       0.00000000      -1.85467000
O       -4.93923000       2.06677000      -2.48575000
H        5.66742000       2.38141000      -3.06120000
H        2.38141000       5.66742000       3.06670000
H        2.38141000       5.66742000      -3.06120000
H       -2.38141000       5.66742000      -3.06120000
H       -5.66742000       2.38141000       3.06670000
H        5.66742000      -2.38141000       3.06670000
H       -2.38141000      -5.66742000       3.06670000
H        2.38141000      -5.66742000       3.06670000
H       -2.38141000      -5.66742000      -3.06120000
H       -5.66742000      -2.38141000       3.06670000
H       -2.38141000       5.66742000       3.06670000
H       -5.66742000      -2.38141000      -3.06120000
H        5.66742000      -2.38141000      -3.06120000
H        2.38141000      -5.66742000      -3.06120000
H        5.66742000       2.38141000       3.06670000
H       -5.66742000       2.38141000      -3.06120000
