145
Properties=species:S:1:pos:R:3 pbc="F F F"
K        0.04666600      -0.05006000       0.01938700
Si      -3.34777000       1.55333000       5.53701000
Al       3.75460000      -3.35126000       1.55574000
Si      -3.75091000       3.34797000      -1.55422000
Si       5.53809000       1.55333000       3.35038000
Si      -5.53440000      -1.55662000       3.35038000
Si       3.35146000      -1.55662000      -5.53548000
Si       1.55682000       3.34797000       3.75352000
Si      -1.55314000      -3.35126000      -3.75199000
Si       3.75460000      -3.35126000      -1.55422000
Si       3.35146000       1.55333000      -5.53548000
Si      -3.75091000       3.34797000       1.55574000
Si       5.53809000       1.55333000      -3.34885000
Si      -5.53440000       1.55333000      -3.34885000
Si      -3.34777000      -1.55662000       5.53701000
Si       1.55682000       3.34797000      -3.75199000
Si      -3.75091000      -3.35126000       1.55574000
Si      -1.55314000      -3.35126000       3.75352000
Si       5.53809000      -1.55662000       3.35038000
Si       3.35146000       1.55333000       5.53701000
Si      -5.53440000       1.55333000       3.35038000
Si      -3.34777000      -1.55662000      -5.53548000
Si       1.55682000      -3.35126000       3.75352000
Si       3.75460000       3.34797000      -1.55422000
Si      -1.55314000       3.34797000      -3.75199000
Si      -3.34777000       1.55333000      -5.53548000
Si      -3.75091000      -3.35126000      -1.55422000
Si       5.53809000      -1.55662000      -3.34885000
Si      -5.53440000      -1.55662000      -3.34885000
Si       1.55682000      -3.35126000      -3.75199000
Si       3.35146000      -1.55662000       5.53701000
Si       3.75460000       3.34797000       1.55574000
Si      -1.55314000       3.34797000       3.75352000
O       -6.92589000       2.35962000       3.43955000
O        1.70730000       4.73946000      -4.54713000
O        2.36311000       3.43714000      -2.36050000
O       -3.44623000      -3.07073000       0.00076000
O       -4.54605000      -4.74275000       1.70622000
O       -2.35942000      -3.44043000       2.36203000
O        0.00184000      -3.07073000       3.44884000
O       -1.70362000      -4.74275000       4.54866000
O       -2.14949000      -2.15298000      -4.64374000
O       -4.73926000      -1.70710000       4.74187000
O       -4.64266000      -2.15298000       2.15210000
O       -2.35942000      -3.44043000      -2.36050000
O        4.54974000      -4.74275000      -1.70470000
O        4.64634000      -2.15298000      -2.15057000
O        2.36311000      -3.44043000      -2.36050000
O        4.74295000       1.70382000      -4.74034000
O       -5.83908000      -0.00164000       3.06985000
O       -3.06724000      -0.00164000       5.84169000
O       -4.73926000       1.70382000       4.74187000
O        3.44992000      -3.07073000       0.00076000
O       -2.14949000       2.14969000       4.64526000
O       -3.43695000       2.35962000       6.92850000
O        4.54974000      -4.74275000       1.70622000
O        4.64634000      -2.15298000       2.15210000
O       -6.92589000       2.35962000      -3.43802000
O       -2.14949000      -2.15298000       4.64526000
O        1.70730000      -4.74275000      -4.54713000
O        3.07093000      -0.00164000      -5.84016000
O        4.74295000      -1.70710000      -4.74034000
O        2.15317000      -2.15298000      -4.64374000
O        3.44063000      -2.36291000      -6.92697000
O        0.00184000       3.06744000       3.44884000
O        1.70730000       4.73946000       4.54866000
O        2.15317000       2.14969000       4.64526000
O        2.36311000       3.43714000       2.36203000
O        0.00184000      -3.07073000      -3.44731000
O       -1.70362000      -4.74275000      -4.54713000
O        3.44063000      -2.36291000       6.92850000
O        4.54974000       4.73946000       1.70622000
O       -1.70362000       4.73946000       4.54866000
O        2.36311000      -3.44043000       2.36203000
O       -3.44623000       3.06744000       0.00076000
O       -4.54605000       4.73946000      -1.70470000
O       -4.64266000       2.14969000      -2.15057000
O       -2.35942000       3.43714000      -2.36050000
O        5.84277000      -0.00164000       3.06985000
O        4.74295000       1.70382000       4.74187000
O        4.64634000       2.14969000       2.15210000
O        6.92958000       2.35962000       3.43955000
O       -6.92589000      -2.36291000       3.43955000
O        1.70730000      -4.74275000       4.54866000
O        2.15317000      -2.15298000       4.64526000
O        3.44992000       3.06744000       0.00076000
O       -3.06724000      -0.00164000      -5.84016000
O       -4.73926000      -1.70710000      -4.74034000
O       -3.43695000      -2.36291000      -6.92697000
O        4.74295000      -1.70710000       4.74187000
O        6.92958000      -2.36291000       3.43955000
O        3.07093000      -0.00164000       5.84169000
O        3.44063000       2.35962000       6.92850000
O       -3.43695000      -2.36291000       6.92850000
O        0.00184000       3.06744000      -3.44731000
O        2.15317000       2.14969000      -4.64374000
O        3.44063000       2.35962000      -6.92697000
O       -4.54605000       4.73946000       1.70622000
O       -4.64266000       2.14969000       2.15210000
O       -2.35942000       3.43714000       2.36203000
O        5.84277000      -0.00164000      -3.06832000
O        4.64634000       2.14969000      -2.15057000
O        6.92958000       2.35962000      -3.43802000
O       -5.83908000      -0.00164000      -3.06832000
O       -4.73926000       1.70382000      -4.74034000
O        4.54974000       4.73946000      -1.70470000
O       -1.70362000       4.73946000      -4.54713000
O       -2.14949000       2.14969000      -4.64374000
O       -3.43695000       2.35962000      -6.92697000
O       -4.54605000      -4.74275000      -1.70470000
O       -4.64266000      -2.15298000      -2.15057000
O        6.92958000      -2.36291000      -3.43802000
O       -6.92589000      -2.36291000      -3.43802000
H       -7.77253000       2.85019000       3.49381000
H        1.79892000       5.58661000      -5.03122000
H       -5.03014000      -5.58990000       1.79784000
H       -1.79523000      -5.58990000       5.03274000
H        5.03382000      -5.58990000      -1.79631000
H       -3.49120000       2.85019000       7.77514000
H        5.03382000      -5.58990000       1.79784000
H       -7.77253000       2.85019000      -3.49228000
H        1.79892000      -5.58990000      -5.03122000
H        3.49489000      -2.85348000      -7.77361000
H        1.79892000       5.58661000       5.03274000
H       -1.79523000      -5.58990000      -5.03122000
H        3.49489000      -2.85348000       7.77514000
H        5.03382000       5.58661000       1.79784000
H       -1.79523000       5.58661000       5.03274000
H       -5.03014000       5.58661000      -1.79631000
H        7.77621000       2.85019000       3.49381000
H       -7.77253000      -2.85348000       3.49381000
H        1.79892000      -5.58990000       5.03274000
H       -3.49120000      -2.85348000      -7.77361000
H        7.77621000      -2.85348000       3.49381000
H        3.49489000       2.85019000       7.77514000
H       -3.49120000      -2.85348000       7.77514000
H        3.49489000       2.85019000      -7.77361000
H       -5.03014000       5.58661000       1.79784000
H        7.77621000       2.85019000      -3.49228000
H        5.03382000       5.58661000      -1.79631000
H       -1.79523000       5.58661000      -5.03122000
H       -3.49120000       2.85019000      -7.77361000
H       -5.03014000      -5.58990000      -1.79631000
H        7.77621000      -2.85348000      -3.49228000
H       -7.77253000      -2.85348000      -3.49228000
