109
Properties=species:S:1:pos:R:3 pbc="F F F"
Ba      -0.01085300      -0.00024900       0.04081600
Si      -2.16939000       0.00000000       4.06826000
Si      -1.50252000       3.75511000      -2.92752000
Si       2.30595000       4.56143000      -0.09256000
Si      -4.56287000      -2.30739000      -0.09256000
Al      -4.50952000       0.00000000       1.97210000
Si       1.49963000      -3.75511000      -2.92752000
Si      -2.30883000      -4.56142000      -0.09256000
Si      -0.00144000       2.16795000       4.06826000
Si       1.49963000       3.75511000      -2.92752000
Si      -2.30883000       4.56143000      -0.09256000
Si      -0.00144100       4.50808000       1.97210000
Si      -0.00144000      -2.16795000       4.06826000
Si       3.75367000       1.50108000      -2.92752000
Si      -1.50252000      -3.75511000      -2.92752000
Si       2.30595000      -4.56142000      -0.09256000
Si      -0.00144000      -4.50807000       1.97210000
Si      -3.75655000      -1.50107000      -2.92752000
Si      -4.56287000       2.30739000      -0.09256000
Si      -3.75655000       1.50108000      -2.92752000
Si       4.55998000      -2.30739000      -0.09256000
Al       2.16651000       0.00000000       4.06826000
Si       3.75367000      -1.50107000      -2.92752000
Si       4.55998000       2.30739000      -0.09256000
Si       4.50663000       0.00000000       1.97210000
O       -4.75444000       1.90484000      -4.12450000
O        4.51148000      -1.54957000      -1.51004000
O        4.15622000      -1.30950000       1.10443000
O        6.06106000      -2.83604000       0.16230000
O        3.57180000       0.00000000       3.28363000
O        2.47085000       0.00000000       5.64896000
O        4.75156000      -1.90484000      -4.12450000
O       -1.31094000       4.15766000       1.10443000
O       -6.06394000       0.00000000       2.39019000
O        1.54813000      -4.51292000      -1.51004000
O       -4.15910000       1.30950000       1.10443000
O       -3.57468000       0.00000000       3.28363000
O       -2.47373000       0.00000000       5.64896000
O       -1.55102000       4.51293000      -1.51004000
O       -1.31579000      -1.31435000       3.69599000
O       -1.31579000       1.31435000       3.69599000
O       -1.90628000       4.75300000      -4.12450000
O       -0.00144000       3.22646000      -3.18238000
O       -4.75444000      -1.90484000      -4.12450000
O       -3.22790000       0.00000000      -3.18238000
O        4.15622000       1.30950000       1.10443000
O        6.06106000       2.83604000       0.16230000
O        6.06106000       0.00000000       2.39019000
O       -2.83748000       6.06250000       0.16230000
O       -3.57347000       3.57203000      -0.11833000
O       -0.00144000       6.06250000       2.39019000
O       -0.00144000      -3.57324000       3.28363000
O       -0.00144000      -2.47229000       5.64896000
O       -2.49192000       2.49048000      -2.90175000
O        1.54813000       4.51293000      -1.51004000
O        1.30806000       4.15766000       1.10443000
O        2.83460000       6.06250000       0.16230000
O        3.57058000       3.57203000      -0.11833000
O       -4.51437000      -1.54957000      -1.51004000
O       -4.15910000      -1.30950000       1.10443000
O       -6.06394000      -2.83604000       0.16230000
O       -3.57347000      -3.57202000      -0.11833000
O        1.90340000      -4.75300000      -4.12450000
O       -4.51437000       1.54958000      -1.51004000
O       -6.06394000       2.83604000       0.16230000
O        1.31291000      -1.31435000       3.69599000
O        4.51148000       1.54958000      -1.51004000
O        4.75156000       1.90484000      -4.12450000
O        3.22502000       0.00000000      -3.18238000
O       -1.90628000      -4.75300000      -4.12450000
O       -2.49192000      -2.49047000      -2.90175000
O        1.30806000      -4.15766000       1.10443000
O        2.83460000      -6.06250000       0.16230000
O        3.57058000      -3.57202000      -0.11833000
O       -0.00144000      -6.06250000       2.39019000
O       -0.00144000      -3.22646000      -3.18238000
O        2.48903000      -2.49047000      -2.90175000
O       -1.55102000      -4.51292000      -1.51004000
O       -1.31094000      -4.15766000       1.10443000
O       -2.83748000      -6.06250000       0.16230000
O       -0.00144000       3.57324000       3.28363000
O       -0.00144000       2.47229000       5.64896000
O        1.31291000       1.31435000       3.69599000
O        1.90340000       4.75300000      -4.12450000
O        2.48903000       2.49048000      -2.90175000
H       -5.36191000       2.15063000      -4.85318000
H        6.97378000      -3.15748000       0.31727000
H        2.65613000       0.00000000       6.61129000
H        5.35903000      -2.15063000      -4.85318000
H       -7.01031000       0.00000000       2.64472000
H       -2.65901000       0.00000000       6.61129000
H       -2.15207000       5.36047000      -4.85318000
H       -5.36191000      -2.15063000      -4.85318000
H        6.97378000       3.15748000       0.31727000
H        7.00743000       0.00000000       2.64472000
H       -3.15892000       6.97522000       0.31727000
H       -0.00144000       7.00887000       2.64472000
H       -0.00144000      -2.65757000       6.61129000
H        3.15604000       6.97522000       0.31727000
H       -6.97666000      -3.15748000       0.31727000
H        2.14919000      -5.36047000      -4.85318000
H       -6.97666000       3.15748000       0.31727000
H        5.35903000       2.15063000      -4.85318000
H       -2.15207000      -5.36047000      -4.85318000
H        3.15604000      -6.97522000       0.31727000
H       -0.00144000      -7.00887000       2.64472000
H       -3.15892000      -6.97522000       0.31727000
H       -0.00144000       2.65757000       6.61129000
H        2.14919000       5.36047000      -4.85318000
