109
Properties=species:S:1:pos:R:3 pbc="F F F"
Ba      -0.00310300      -0.02582500      -0.01979100
Si      -2.16845000      -0.00234000       4.06268000
Si      -1.50157000       3.75277000      -2.93310000
Si       2.30689000       4.55908000      -0.09813000
Al      -4.56192000      -2.30973000      -0.09813000
Si      -4.50857000      -0.00233900       1.96652000
Si       1.50058000      -3.75746000      -2.93310000
Si      -2.30788000      -4.56377000      -0.09813000
Si      -0.00050000       2.16561000       4.06268000
Si       1.50058000       3.75277000      -2.93310000
Si      -2.30788000       4.55908000      -0.09813000
Si      -0.00050000       4.50573000       1.96652000
Si      -0.00050000      -2.17029000       4.06268000
Si       3.75462000       1.49873000      -2.93310000
Si      -1.50157000      -3.75746000      -2.93310000
Si       2.30689000      -4.56377000      -0.09813000
Si      -0.00050000      -4.51042000       1.96652000
Si      -3.75561000      -1.50342000      -2.93310000
Si      -4.56192000       2.30504000      -0.09813000
Si      -3.75561000       1.49873000      -2.93310000
Si       4.56093000      -2.30973000      -0.09813000
Si       2.16745000      -0.00234000       4.06268000
Al       3.75462000      -1.50342000      -2.93310000
Si       4.56093000       2.30504000      -0.09813000
Si       4.50758000      -0.00234000       1.96652000
O       -4.75350000       1.90249000      -4.13008000
O        4.51243000      -1.55192000      -1.51562000
O        4.15717000      -1.31184000       1.09885000
O        6.06200000      -2.83838000       0.15673000
O        3.57274000      -0.00234000       3.27805000
O        2.47179000      -0.00234000       5.64338000
O        4.75250000      -1.90718000      -4.13008000
O       -1.31000000       4.15532000       1.09885000
O       -6.06300000      -0.00234000       2.38461000
O        1.54908000      -4.51527000      -1.51562000
O       -4.15816000       1.30716000       1.09885000
O       -3.57373000      -0.00234000       3.27805000
O       -2.47278000      -0.00234000       5.64338000
O       -1.55007000       4.51058000      -1.51562000
O       -1.31485000      -1.31669000       3.69041000
O       -1.31485000       1.31201000       3.69041000
O       -1.90533000       4.75066000      -4.13008000
O       -0.00050000       3.22412000      -3.18796000
O       -4.75350000      -1.90718000      -4.13008000
O       -3.22696000      -0.00234000      -3.18796000
O        4.15717000       1.30716000       1.09885000
O        6.06200000       2.83369000       0.15673000
O        6.06200000      -0.00234000       2.38461000
O       -2.83653000       6.06016000       0.15673000
O       -3.57252000       3.56968000      -0.12391000
O       -0.00050000       6.06016000       2.38461000
O       -0.00050000      -3.57558000       3.27805000
O       -0.00050000      -2.47463000       5.64338000
O       -2.49097000       2.48813000      -2.90733000
O        1.54908000       4.51058000      -1.51562000
O        1.30900000       4.15532000       1.09885000
O        2.83554000       6.06016000       0.15673000
O        3.57153000       3.56968000      -0.12391000
O       -4.51342000      -1.55192000      -1.51562000
O       -4.15816000      -1.31184000       1.09885000
O       -6.06300000      -2.83838000       0.15673000
O       -3.57252000      -3.57437000      -0.12391000
O        1.90434000      -4.75534000      -4.13008000
O       -4.51342000       1.54723000      -1.51562000
O       -6.06300000       2.83369000       0.15673000
O        1.31385000      -1.31669000       3.69041000
O        4.51243000       1.54723000      -1.51562000
O        4.75250000       1.90249000      -4.13008000
O        3.22597000      -0.00234000      -3.18796000
O       -1.90533000      -4.75534000      -4.13008000
O       -2.49097000      -2.49282000      -2.90733000
O        1.30900000      -4.16001000       1.09885000
O        2.83554000      -6.06484000       0.15673000
O        3.57153000      -3.57437000      -0.12391000
O       -0.00050000      -6.06484000       2.38461000
O       -0.00050000      -3.22881000      -3.18796000
O        2.48998000      -2.49282000      -2.90733000
O       -1.55007000      -4.51527000      -1.51562000
O       -1.31000000      -4.16001000       1.09885000
O       -2.83653000      -6.06484000       0.15673000
O       -0.00050000       3.57089000       3.27805000
O       -0.00050000       2.46994000       5.64338000
O        1.31385000       1.31201000       3.69041000
O        1.90434000       4.75066000      -4.13008000
O        2.48998000       2.48813000      -2.90733000
H       -5.36097000       2.14829000      -4.85876000
H        6.97472000      -3.15982000       0.31169000
H        2.65707000      -0.00234000       6.60571000
H        5.35997000      -2.15298000      -4.85876000
H       -7.00936000      -0.00234000       2.63915000
H       -2.65806000      -0.00234000       6.60571000
H       -2.15113000       5.35813000      -4.85876000
H       -5.36097000      -2.15298000      -4.85876000
H        6.97472000       3.15514000       0.31169000
H        7.00837000      -0.00234000       2.63915000
H       -3.15798000       6.97288000       0.31169000
H       -0.00050000       7.00652000       2.63915000
H       -0.00050000      -2.65991000       6.60571000
H        3.15698000       6.97288000       0.31169000
H       -6.97572000      -3.15982000       0.31169000
H        2.15013000      -5.36282000      -4.85876000
H       -6.97572000       3.15514000       0.31169000
H        5.35997000       2.14829000      -4.85876000
H       -2.15113000      -5.36282000      -4.85876000
H        3.15698000      -6.97757000       0.31169000
H       -0.00050000      -7.01121000       2.63915000
H       -3.15798000      -6.97757000       0.31169000
H       -0.00050000       2.65522000       6.60571000
H        2.15013000       5.35813000      -4.85876000
