109
Properties=species:S:1:pos:R:3 pbc="F F F"
Ba      -0.00019600       0.02819900       0.03461600
Si      -2.16795000       0.00411000       4.06826000
Si      -1.50108000       3.75922000      -2.92752000
Si       2.30739000       4.56553000      -0.09256000
Si      -4.56143000      -2.30328000      -0.09256000
Si      -4.50808000       0.00411700       1.97210000
Si       1.50107000      -3.75100000      -2.92752000
Si      -2.30739000      -4.55732000      -0.09256000
Al       0.00000000       2.17206000       4.06826000
Si       1.50107000       3.75922000      -2.92752000
Si      -2.30739000       4.56553000      -0.09256000
Al       0.00000000       4.51218000       1.97210000
Si       0.00000000      -2.16384000       4.06826000
Si       3.75511000       1.50518000      -2.92752000
Si      -1.50108000      -3.75100000      -2.92752000
Si       2.30739000      -4.55732000      -0.09256000
Si       0.00000000      -4.50397000       1.97210000
Si      -3.75511000      -1.49697000      -2.92752000
Si      -4.56143000       2.31150000      -0.09256000
Si      -3.75511000       1.50518000      -2.92752000
Si       4.56142000      -2.30328000      -0.09256000
Si       2.16795000       0.00411000       4.06826000
Si       3.75511000      -1.49697000      -2.92752000
Si       4.56142000       2.31150000      -0.09256000
Si       4.50807000       0.00411000       1.97210000
O       -4.75300000       1.90895000      -4.12450000
O        4.51292000      -1.54547000      -1.51004000
O        4.15766000      -1.30539000       1.10443000
O        6.06250000      -2.83193000       0.16230000
O        3.57324000       0.00411000       3.28363000
O        2.47229000       0.00411000       5.64896000
O        4.75300000      -1.90073000      -4.12450000
O       -1.30950000       4.16177000       1.10443000
O       -6.06250000       0.00410400       2.39019000
O        1.54957000      -4.50882000      -1.51004000
O       -4.15766000       1.31361000       1.10443000
O       -3.57324000       0.00410900       3.28363000
O       -2.47229000       0.00411000       5.64896000
O       -1.54958000       4.51703000      -1.51004000
O       -1.31435000      -1.31024000       3.69599000
O       -1.31435000       1.31846000       3.69599000
O       -1.90484000       4.75711000      -4.12450000
O        0.00000000       3.23057000      -3.18238000
O       -4.75300000      -1.90073000      -4.12450000
O       -3.22646000       0.00411000      -3.18238000
O        4.15766000       1.31361000       1.10443000
O        6.06250000       2.84015000       0.16230000
O        6.06250000       0.00411000       2.39019000
O       -2.83604000       6.06661000       0.16230000
O       -3.57203000       3.57613000      -0.11833000
O        0.00000000       6.06661000       2.39019000
O        0.00000000      -3.56913000       3.28363000
O        0.00000000      -2.46818000       5.64896000
O       -2.49048000       2.49458000      -2.90175000
O        1.54957000       4.51703000      -1.51004000
O        1.30950000       4.16177000       1.10443000
O        2.83604000       6.06661000       0.16230000
O        3.57202000       3.57613000      -0.11833000
O       -4.51293000      -1.54547000      -1.51004000
O       -4.15766000      -1.30539000       1.10443000
O       -6.06250000      -2.83193000       0.16230000
O       -3.57203000      -3.56792000      -0.11833000
O        1.90484000      -4.74889000      -4.12450000
O       -4.51293000       1.55368000      -1.51004000
O       -6.06250000       2.84015000       0.16230000
O        1.31435000      -1.31024000       3.69599000
O        4.51292000       1.55368000      -1.51004000
O        4.75300000       1.90895000      -4.12450000
O        3.22646000       0.00411000      -3.18238000
O       -1.90484000      -4.74889000      -4.12450000
O       -2.49048000      -2.48637000      -2.90175000
O        1.30950000      -4.15355000       1.10443000
O        2.83604000      -6.05839000       0.16230000
O        3.57202000      -3.56792000      -0.11833000
O        0.00000000      -6.05839000       2.39019000
O        0.00000000      -3.22235000      -3.18238000
O        2.49047000      -2.48637000      -2.90175000
O       -1.54958000      -4.50882000      -1.51004000
O       -1.30950000      -4.15355000       1.10443000
O       -2.83604000      -6.05839000       0.16230000
O        0.00000000       3.57735000       3.28363000
O        0.00000000       2.47640000       5.64896000
O        1.31435000       1.31846000       3.69599000
O        1.90484000       4.75711000      -4.12450000
O        2.49047000       2.49458000      -2.90175000
H       -5.36047000       2.15474000      -4.85318000
H        6.97522000      -3.15337000       0.31727000
H        2.65757000       0.00411000       6.61129000
H        5.36047000      -2.14652000      -4.85318000
H       -7.00887000       0.00411100       2.64472000
H       -2.65757000       0.00411000       6.61129000
H       -2.15063000       5.36458000      -4.85318000
H       -5.36047000      -2.14652000      -4.85318000
H        6.97522000       3.16159000       0.31727000
H        7.00887000       0.00411000       2.64472000
H       -3.15748000       6.97933000       0.31727000
H        0.00000000       7.01298000       2.64472000
H        0.00000000      -2.65346000       6.61129000
H        3.15748000       6.97933000       0.31727000
H       -6.97522000      -3.15337000       0.31727000
H        2.15063000      -5.35636000      -4.85318000
H       -6.97522000       3.16159000       0.31727000
H        5.36047000       2.15474000      -4.85318000
H       -2.15063000      -5.35636000      -4.85318000
H        3.15748000      -6.97111000       0.31727000
H        0.00000000      -7.00476000       2.64472000
H       -3.15748000      -6.97111000       0.31727000
H        0.00000000       2.66168000       6.61129000
H        2.15063000       5.36458000      -4.85318000
