109
Properties=species:S:1:pos:R:3 pbc="F F F"
Sr       0.02018900       0.02094000       0.02726800
Si      -2.16506000       0.00283000       4.06710000
Si      -1.49819000       3.75795000      -2.92867000
Si       2.31028000       4.56426000      -0.09371000
Si      -4.55854000      -2.30455000      -0.09371000
Si      -4.50519000       0.00283700       1.97095000
Si       1.50396000      -3.75228000      -2.92867000
Si      -2.30450000      -4.55859000      -0.09371000
Al       0.00289000       2.17078000       4.06710000
Si       1.50396000       3.75795000      -2.92867000
Si      -2.30450000       4.56426000      -0.09371000
Si       0.00289000       4.51091000       1.97095000
Si       0.00289000      -2.16512000       4.06710000
Si       3.75800000       1.50391000      -2.92867000
Si      -1.49819000      -3.75228000      -2.92867000
Si       2.31028000      -4.55859000      -0.09371000
Si       0.00289000      -4.50524000       1.97095000
Si      -3.75222000      -1.49824000      -2.92867000
Si      -4.55854000       2.31022000      -0.09371000
Si      -3.75222000       1.50391000      -2.92867000
Si       4.56431000      -2.30455000      -0.09371000
Si       2.17084000       0.00283000       4.06710000
Si       3.75800000      -1.49824000      -2.92867000
Al       4.56431000       2.31022000      -0.09371000
Si       4.51096000       0.00283000       1.97095000
O       -4.75011000       1.90767000      -4.12566000
O        4.51581000      -1.54674000      -1.51119000
O        4.16055000      -1.30667000       1.10328000
O        6.06539000      -2.83320000       0.16115000
O        3.57613000       0.00283000       3.28247000
O        2.47518000       0.00283000       5.64781000
O        4.75589000      -1.90200000      -4.12566000
O       -1.30661000       4.16050000       1.10328000
O       -6.05961000       0.00282400       2.38903000
O        1.55246000      -4.51009000      -1.51119000
O       -4.15477000       1.31233000       1.10328000
O       -3.57035000       0.00282900       3.28247000
O       -2.46940000       0.00283000       5.64781000
O       -1.54669000       4.51576000      -1.51119000
O       -1.31146000      -1.31152000       3.69483000
O       -1.31146000       1.31718000       3.69483000
O       -1.90195000       4.75583000      -4.12566000
O        0.00289000       3.22930000      -3.18353000
O       -4.75011000      -1.90200000      -4.12566000
O       -3.22357000       0.00283000      -3.18353000
O        4.16055000       1.31233000       1.10328000
O        6.06539000       2.83887000       0.16115000
O        6.06539000       0.00283000       2.38903000
O       -2.83315000       6.06533000       0.16115000
O       -3.56914000       3.57486000      -0.11948000
O        0.00289000       6.06533000       2.38903000
O        0.00289000      -3.57040000       3.28247000
O        0.00289000      -2.46945000       5.64781000
O       -2.48759000       2.49331000      -2.90290000
O        1.55246000       4.51576000      -1.51119000
O        1.31239000       4.16050000       1.10328000
O        2.83893000       6.06533000       0.16115000
O        3.57491000       3.57486000      -0.11948000
O       -4.51004000      -1.54674000      -1.51119000
O       -4.15477000      -1.30667000       1.10328000
O       -6.05961000      -2.83320000       0.16115000
O       -3.56914000      -3.56919000      -0.11948000
O        1.90773000      -4.75017000      -4.12566000
O       -4.51004000       1.55241000      -1.51119000
O       -6.05961000       2.83887000       0.16115000
O        1.31724000      -1.31152000       3.69483000
O        4.51581000       1.55241000      -1.51119000
O        4.75589000       1.90767000      -4.12566000
O        3.22935000       0.00283000      -3.18353000
O       -1.90195000      -4.75017000      -4.12566000
O       -2.48759000      -2.48764000      -2.90290000
O        1.31239000      -4.15483000       1.10328000
O        2.83893000      -6.05967000       0.16115000
O        3.57491000      -3.56919000      -0.11948000
O        0.00289000      -6.05967000       2.38903000
O        0.00289000      -3.22363000      -3.18353000
O        2.49336000      -2.48764000      -2.90290000
O       -1.54669000      -4.51009000      -1.51119000
O       -1.30661000      -4.15483000       1.10328000
O       -2.83315000      -6.05967000       0.16115000
O        0.00289000       3.57607000       3.28247000
O        0.00289000       2.47512000       5.64781000
O        1.31724000       1.31718000       3.69483000
O        1.90773000       4.75583000      -4.12566000
O        2.49336000       2.49331000      -2.90290000
H       -5.35758000       2.15346000      -4.85433000
H        6.97811000      -3.15465000       0.31612000
H        2.66045000       0.00283000       6.61013000
H        5.36336000      -2.14780000      -4.85433000
H       -7.00598000       0.00283100       2.64357000
H       -2.65468000       0.00283000       6.61013000
H       -2.14774000       5.36330000      -4.85433000
H       -5.35758000      -2.14780000      -4.85433000
H        6.97811000       3.16031000       0.31612000
H        7.01175000       0.00283000       2.64357000
H       -3.15459000       6.97805000       0.31612000
H        0.00289000       7.01170000       2.64357000
H        0.00289000      -2.65473000       6.61013000
H        3.16037000       6.97805000       0.31612000
H       -6.97233000      -3.15465000       0.31612000
H        2.15352000      -5.35764000      -4.85433000
H       -6.97233000       3.16031000       0.31612000
H        5.36336000       2.15346000      -4.85433000
H       -2.14774000      -5.35764000      -4.85433000
H        3.16037000      -6.97239000       0.31612000
H        0.00289000      -7.00603000       2.64357000
H       -3.15459000      -6.97239000       0.31612000
H        0.00289000       2.66040000       6.61013000
H        2.15352000       5.36330000      -4.85433000
