109
Properties=species:S:1:pos:R:3 pbc="F F F"
Sr      -0.00137100       0.00253100       0.00006100
Si      -2.16843000       0.00095000       4.06398000
Si      -1.50155000       3.75606000      -2.93180000
Si       2.30691000       4.56238000      -0.09683000
Si      -4.56190000      -2.30644000      -0.09683000
Al      -4.50855000       0.00095000       1.96782000
Si       1.50060000      -3.75416000      -2.93180000
Si      -2.30786000      -4.56047000      -0.09683000
Si      -0.00048000       2.16890000       4.06398000
Si       1.50060000       3.75606000      -2.93180000
Si      -2.30786000       4.56238000      -0.09683000
Si      -0.00048000       4.50903000       1.96782000
Si      -0.00048000      -2.16700000       4.06398000
Al       3.75464000       1.50203000      -2.93180000
Si      -1.50155000      -3.75416000      -2.93180000
Si       2.30691000      -4.56047000      -0.09683000
Si      -0.00048000      -4.50712000       1.96782000
Si      -3.75559000      -1.50012000      -2.93180000
Si      -4.56190000       2.30834000      -0.09683000
Si      -3.75559000       1.50203000      -2.93180000
Si       4.56095000      -2.30644000      -0.09683000
Si       2.16747000       0.00095000       4.06398000
Si       3.75464000      -1.50012000      -2.93180000
Si       4.56095000       2.30834000      -0.09683000
Si       4.50760000       0.00095000       1.96782000
O       -4.75348000       1.90579000      -4.12878000
O        4.51245000      -1.54862000      -1.51431000
O        4.15719000      -1.30855000       1.10015000
O        6.06202000      -2.83509000       0.15803000
O        3.57276000       0.00095000       3.27935000
O        2.47181000       0.00095000       5.64469000
O        4.75252000      -1.90389000      -4.12878000
O       -1.30998000       4.15861000       1.10015000
O       -6.06298000       0.00095000       2.38591000
O        1.54910000      -4.51197000      -1.51431000
O       -4.15814000       1.31045000       1.10015000
O       -3.57371000       0.00095000       3.27935000
O       -2.47276000       0.00095000       5.64469000
O       -1.55005000       4.51388000      -1.51431000
O       -1.31483000      -1.31340000       3.69171000
O       -1.31483000       1.31530000       3.69171000
O       -1.90531000       4.75395000      -4.12878000
O       -0.00048000       3.22741000      -3.18666000
O       -4.75348000      -1.90389000      -4.12878000
O       -3.22694000       0.00095000      -3.18666000
O        4.15719000       1.31045000       1.10015000
O        6.06202000       2.83699000       0.15803000
O        6.06202000       0.00095000       2.38591000
O       -2.83651000       6.06345000       0.15803000
O       -3.57250000       3.57298000      -0.12260000
O       -0.00048000       6.06345000       2.38591000
O       -0.00048000      -3.57229000       3.27935000
O       -0.00048000      -2.47134000       5.64469000
O       -2.49095000       2.49143000      -2.90602000
O        1.54910000       4.51388000      -1.51431000
O        1.30902000       4.15861000       1.10015000
O        2.83556000       6.06345000       0.15803000
O        3.57155000       3.57298000      -0.12260000
O       -4.51340000      -1.54862000      -1.51431000
O       -4.15814000      -1.30855000       1.10015000
O       -6.06298000      -2.83509000       0.15803000
O       -3.57250000      -3.57107000      -0.12260000
O        1.90436000      -4.75205000      -4.12878000
O       -4.51340000       1.55053000      -1.51431000
O       -6.06298000       2.83699000       0.15803000
O        1.31387000      -1.31340000       3.69171000
O        4.51245000       1.55053000      -1.51431000
O        4.75252000       1.90579000      -4.12878000
O        3.22599000       0.00095000      -3.18666000
O       -1.90531000      -4.75205000      -4.12878000
O       -2.49095000      -2.48952000      -2.90602000
O        1.30902000      -4.15671000       1.10015000
O        2.83556000      -6.06155000       0.15803000
O        3.57155000      -3.57107000      -0.12260000
O       -0.00048000      -6.06155000       2.38591000
O       -0.00048000      -3.22551000      -3.18666000
O        2.49000000      -2.48952000      -2.90602000
O       -1.55005000      -4.51197000      -1.51431000
O       -1.30998000      -4.15671000       1.10015000
O       -2.83651000      -6.06155000       0.15803000
O       -0.00048000       3.57419000       3.27935000
O       -0.00048000       2.47324000       5.64469000
O        1.31387000       1.31530000       3.69171000
O        1.90436000       4.75395000      -4.12878000
O        2.49000000       2.49143000      -2.90602000
H       -5.36095000       2.15158000      -4.85745000
H        6.97474000      -3.15653000       0.31300000
H        2.65709000       0.00095000       6.60701000
H        5.35999000      -2.14968000      -4.85745000
H       -7.00934000       0.00095000       2.64045000
H       -2.65804000       0.00095000       6.60701000
H       -2.15111000       5.36142000      -4.85745000
H       -5.36095000      -2.14968000      -4.85745000
H        6.97474000       3.15843000       0.31300000
H        7.00839000       0.00095000       2.64045000
H       -3.15796000       6.97617000       0.31300000
H       -0.00048000       7.00982000       2.64045000
H       -0.00048000      -2.65662000       6.60701000
H        3.15700000       6.97617000       0.31300000
H       -6.97570000      -3.15653000       0.31300000
H        2.15015000      -5.35952000      -4.85745000
H       -6.97570000       3.15843000       0.31300000
H        5.35999000       2.15158000      -4.85745000
H       -2.15111000      -5.35952000      -4.85745000
H        3.15700000      -6.97427000       0.31300000
H       -0.00048000      -7.00792000       2.64045000
H       -3.15796000      -6.97427000       0.31300000
H       -0.00048000       2.65852000       6.60701000
H        2.15015000       5.36142000      -4.85745000
