109
Properties=species:S:1:pos:R:3 pbc="F F F"
Rb      -0.02810000      -0.00002100       0.01480400
Si      -2.17081000       0.00000000       4.06584000
Si      -1.50393000       3.75511000      -2.92994000
Si       2.30453000       4.56143000      -0.09497000
Si      -4.56428000      -2.30739000      -0.09497000
Al      -4.51093000       0.00000000       1.96968000
Si       1.49822000      -3.75511000      -2.92994000
Si      -2.31024000      -4.56142000      -0.09497000
Si      -0.00286000       2.16795000       4.06584000
Si       1.49822000       3.75511000      -2.92994000
Si      -2.31024000       4.56143000      -0.09497000
Si      -0.00286100       4.50808000       1.96968000
Si      -0.00286000      -2.16795000       4.06584000
Si       3.75226000       1.50108000      -2.92994000
Si      -1.50393000      -3.75511000      -2.92994000
Si       2.30453000      -4.56142000      -0.09497000
Si      -0.00286000      -4.50807000       1.96968000
Si      -3.75797000      -1.50107000      -2.92994000
Si      -4.56428000       2.30739000      -0.09497000
Si      -3.75797000       1.50108000      -2.92994000
Si       4.55857000      -2.30739000      -0.09497000
Si       2.16509000       0.00000000       4.06584000
Si       3.75226000      -1.50107000      -2.92994000
Si       4.55857000       2.30739000      -0.09497000
Si       4.50522000       0.00000000       1.96968000
O       -4.75586000       1.90484000      -4.12692000
O        4.51007000      -1.54957000      -1.51245000
O        4.15481000      -1.30950000       1.10201000
O        6.05964000      -2.83604000       0.15989000
O        3.57038000       0.00000000       3.28121000
O        2.46943000       0.00000000       5.64655000
O        4.75014000      -1.90484000      -4.12692000
O       -1.31236000       4.15766000       1.10201000
O       -6.06536000       0.00000000       2.38777000
O        1.54672000      -4.51292000      -1.51245000
O       -4.16052000       1.30950000       1.10201000
O       -3.57609000       0.00000000       3.28121000
O       -2.47514000       0.00000000       5.64655000
O       -1.55243000       4.51293000      -1.51245000
O       -1.31721000      -1.31435000       3.69357000
O       -1.31721000       1.31435000       3.69357000
O       -1.90769000       4.75300000      -4.12692000
O       -0.00286000       3.22646000      -3.18480000
O       -4.75586000      -1.90484000      -4.12692000
O       -3.22932000       0.00000000      -3.18480000
O        4.15481000       1.30950000       1.10201000
O        6.05964000       2.83604000       0.15989000
O        6.05964000       0.00000000       2.38777000
O       -2.83889000       6.06250000       0.15989000
O       -3.57488000       3.57203000      -0.12074000
O       -0.00285900       6.06250000       2.38777000
O       -0.00286000      -3.57324000       3.28121000
O       -0.00286000      -2.47229000       5.64655000
O       -2.49333000       2.49048000      -2.90416000
O        1.54672000       4.51293000      -1.51245000
O        1.30664000       4.15766000       1.10201000
O        2.83318000       6.06250000       0.15989000
O        3.56917000       3.57203000      -0.12074000
O       -4.51578000      -1.54957000      -1.51245000
O       -4.16052000      -1.30950000       1.10201000
O       -6.06536000      -2.83604000       0.15989000
O       -3.57488000      -3.57202000      -0.12074000
O        1.90198000      -4.75300000      -4.12692000
O       -4.51578000       1.54958000      -1.51245000
O       -6.06536000       2.83604000       0.15989000
O        1.31149000      -1.31435000       3.69357000
O        4.51007000       1.54958000      -1.51245000
O        4.75014000       1.90484000      -4.12692000
O        3.22361000       0.00000000      -3.18480000
O       -1.90769000      -4.75300000      -4.12692000
O       -2.49333000      -2.49047000      -2.90416000
O        1.30664000      -4.15766000       1.10201000
O        2.83318000      -6.06250000       0.15989000
O        3.56917000      -3.57202000      -0.12074000
O       -0.00286000      -6.06250000       2.38777000
O       -0.00286000      -3.22646000      -3.18480000
O        2.48762000      -2.49047000      -2.90416000
O       -1.55243000      -4.51292000      -1.51245000
O       -1.31236000      -4.15766000       1.10201000
O       -2.83889000      -6.06250000       0.15989000
O       -0.00286000       3.57324000       3.28121000
O       -0.00286000       2.47229000       5.64655000
O        1.31149000       1.31435000       3.69357000
O        1.90198000       4.75300000      -4.12692000
O        2.48762000       2.49048000      -2.90416000
H       -5.36333000       2.15063000      -4.85559000
H        6.97236000      -3.15748000       0.31485000
H        2.65471000       0.00000000       6.60887000
H        5.35761000      -2.15063000      -4.85559000
H       -7.01172000       0.00000000       2.64231000
H       -2.66042000       0.00000000       6.60887000
H       -2.15349000       5.36047000      -4.85559000
H       -5.36333000      -2.15063000      -4.85559000
H        6.97236000       3.15748000       0.31485000
H        7.00601000       0.00000000       2.64231000
H       -3.16034000       6.97522000       0.31485000
H       -0.00286000       7.00887000       2.64231000
H       -0.00286000      -2.65757000       6.60887000
H        3.15462000       6.97522000       0.31485000
H       -6.97808000      -3.15748000       0.31485000
H        2.14777000      -5.36047000      -4.85559000
H       -6.97808000       3.15748000       0.31485000
H        5.35761000       2.15063000      -4.85559000
H       -2.15349000      -5.36047000      -4.85559000
H        3.15462000      -6.97522000       0.31485000
H       -0.00286000      -7.00887000       2.64231000
H       -3.16034000      -6.97522000       0.31485000
H       -0.00286000       2.65757000       6.60887000
H        2.14777000       5.36047000      -4.85559000
