145
Properties=species:S:1:pos:R:3 pbc="F F F"
Sr      -0.00055800       0.03635300      -0.00019400
Si      -3.34961000       1.55647000       5.53624000
Si       3.75276000      -3.34812000       1.55498000
Si      -3.75276000       3.35111000      -1.55498000
Al       5.53624000       1.55647000       3.34961000
Si      -5.53624000      -1.55348000       3.34961000
Si       3.34961000      -1.55348000      -5.53624000
Si       1.55498000       3.35111000       3.75276000
Si      -1.55498000      -3.34812000      -3.75276000
Si       3.75276000      -3.34812000      -1.55498000
Si       3.34961000       1.55647000      -5.53624000
Si      -3.75276000       3.35111000       1.55498000
Si       5.53624000       1.55647000      -3.34961000
Al      -5.53624000       1.55647000      -3.34961000
Si      -3.34961000      -1.55348000       5.53624000
Si       1.55498000       3.35111000      -3.75276000
Si      -3.75276000      -3.34812000       1.55498000
Si      -1.55498000      -3.34812000       3.75276000
Si       5.53624000      -1.55348000       3.34961000
Si       3.34961000       1.55647000       5.53624000
Si      -5.53624000       1.55647000       3.34961000
Si      -3.34961000      -1.55348000      -5.53624000
Si       1.55498000      -3.34812000       3.75276000
Si       3.75276000       3.35111000      -1.55498000
Si      -1.55498000       3.35111000      -3.75276000
Si      -3.34961000       1.55647000      -5.53624000
Si      -3.75276000      -3.34812000      -1.55498000
Si       5.53624000      -1.55348000      -3.34961000
Si      -5.53624000      -1.55348000      -3.34961000
Si       1.55498000      -3.34812000      -3.75276000
Si       3.34961000      -1.55348000       5.53624000
Si       3.75276000       3.35111000       1.55498000
Si      -1.55498000       3.35111000       3.75276000
O       -6.92774000       2.36276000       3.43879000
O        1.70546000       4.74260000      -4.54789000
O        2.36126000       3.44028000      -2.36126000
O       -3.44808000      -3.06759000       0.00000000
O       -4.54789000      -4.73961000       1.70546000
O       -2.36126000      -3.43729000       2.36126000
O        0.00000000      -3.06759000       3.44808000
O       -1.70546000      -4.73961000       4.54789000
O       -2.15133000      -2.14984000      -4.64450000
O       -4.74111000      -1.70396000       4.74111000
O       -4.64450000      -2.14984000       2.15133000
O       -2.36126000      -3.43729000      -2.36126000
O        4.54789000      -4.73961000      -1.70546000
O        4.64450000      -2.14984000      -2.15133000
O        2.36126000      -3.43729000      -2.36126000
O        4.74111000       1.70696000      -4.74111000
O       -5.84092000       0.00150000       3.06909000
O       -3.06909000       0.00150000       5.84092000
O       -4.74111000       1.70696000       4.74111000
O        3.44808000      -3.06759000       0.00000000
O       -2.15133000       2.15283000       4.64450000
O       -3.43879000       2.36276000       6.92774000
O        4.54789000      -4.73961000       1.70546000
O        4.64450000      -2.14984000       2.15133000
O       -6.92774000       2.36276000      -3.43879000
O       -2.15133000      -2.14984000       4.64450000
O        1.70546000      -4.73961000      -4.54789000
O        3.06909000       0.00150000      -5.84092000
O        4.74111000      -1.70396000      -4.74111000
O        2.15133000      -2.14984000      -4.64450000
O        3.43879000      -2.35977000      -6.92774000
O        0.00000000       3.07058000       3.44808000
O        1.70546000       4.74260000       4.54789000
O        2.15133000       2.15283000       4.64450000
O        2.36126000       3.44028000       2.36126000
O        0.00000000      -3.06759000      -3.44808000
O       -1.70546000      -4.73961000      -4.54789000
O        3.43879000      -2.35977000       6.92774000
O        4.54789000       4.74260000       1.70546000
O       -1.70546000       4.74260000       4.54789000
O        2.36126000      -3.43729000       2.36126000
O       -3.44808000       3.07058000       0.00000000
O       -4.54789000       4.74260000      -1.70546000
O       -4.64450000       2.15283000      -2.15133000
O       -2.36126000       3.44028000      -2.36126000
O        5.84092000       0.00150000       3.06909000
O        4.74111000       1.70696000       4.74111000
O        4.64450000       2.15283000       2.15133000
O        6.92774000       2.36276000       3.43879000
O       -6.92774000      -2.35977000       3.43879000
O        1.70546000      -4.73961000       4.54789000
O        2.15133000      -2.14984000       4.64450000
O        3.44808000       3.07058000       0.00000000
O       -3.06909000       0.00150000      -5.84092000
O       -4.74111000      -1.70396000      -4.74111000
O       -3.43879000      -2.35977000      -6.92774000
O        4.74111000      -1.70396000       4.74111000
O        6.92774000      -2.35977000       3.43879000
O        3.06909000       0.00150000       5.84092000
O        3.43879000       2.36276000       6.92774000
O       -3.43879000      -2.35977000       6.92774000
O        0.00000000       3.07058000      -3.44808000
O        2.15133000       2.15283000      -4.64450000
O        3.43879000       2.36276000      -6.92774000
O       -4.54789000       4.74260000       1.70546000
O       -4.64450000       2.15283000       2.15133000
O       -2.36126000       3.44028000       2.36126000
O        5.84092000       0.00150000      -3.06909000
O        4.64450000       2.15283000      -2.15133000
O        6.92774000       2.36276000      -3.43879000
O       -5.84092000       0.00150000      -3.06909000
O       -4.74111000       1.70696000      -4.74111000
O        4.54789000       4.74260000      -1.70546000
O       -1.70546000       4.74260000      -4.54789000
O       -2.15133000       2.15283000      -4.64450000
O       -3.43879000       2.36276000      -6.92774000
O       -4.54789000      -4.73961000      -1.70546000
O       -4.64450000      -2.14984000      -2.15133000
O        6.92774000      -2.35977000      -3.43879000
O       -6.92774000      -2.35977000      -3.43879000
H       -7.77437000       2.85333000       3.49304000
H        1.79707000       5.58975000      -5.03198000
H       -5.03198000      -5.58676000       1.79707000
H       -1.79708000      -5.58676000       5.03198000
H        5.03198000      -5.58676000      -1.79708000
H       -3.49305000       2.85333000       7.77437000
H        5.03198000      -5.58676000       1.79707000
H       -7.77437000       2.85333000      -3.49305000
H        1.79707000      -5.58676000      -5.03198000
H        3.49304000      -2.85034000      -7.77437000
H        1.79707000       5.58975000       5.03198000
H       -1.79708000      -5.58676000      -5.03198000
H        3.49304000      -2.85034000       7.77437000
H        5.03198000       5.58975000       1.79707000
H       -1.79708000       5.58975000       5.03198000
H       -5.03198000       5.58975000      -1.79708000
H        7.77437000       2.85333000       3.49304000
H       -7.77437000      -2.85034000       3.49304000
H        1.79707000      -5.58676000       5.03198000
H       -3.49305000      -2.85034000      -7.77437000
H        7.77437000      -2.85034000       3.49304000
H        3.49304000       2.85333000       7.77437000
H       -3.49305000      -2.85034000       7.77437000
H        3.49304000       2.85333000      -7.77437000
H       -5.03198000       5.58975000       1.79707000
H        7.77437000       2.85333000      -3.49305000
H        5.03198000       5.58975000      -1.79708000
H       -1.79708000       5.58975000      -5.03198000
H       -3.49305000       2.85333000      -7.77437000
H       -5.03198000      -5.58676000      -1.79708000
H        7.77437000      -2.85034000      -3.49305000
H       -7.77437000      -2.85034000      -3.49305000
