109
Properties=species:S:1:pos:R:3 pbc="F F F"
Sr      -0.01121000      -0.00021800       0.03980300
Si      -2.16943000       0.00000000       4.06841000
Si      -1.50256000       3.75511000      -2.92737000
Si       2.30591000       4.56143000      -0.09240000
Si      -4.56291000      -2.30739000      -0.09240000
Al      -4.50956000       0.00000000       1.97225000
Si       1.49959000      -3.75511000      -2.92737000
Si      -2.30887000      -4.56142000      -0.09240000
Si      -0.00148000       2.16795000       4.06841000
Si       1.49959000       3.75511000      -2.92737000
Si      -2.30887000       4.56143000      -0.09240000
Si      -0.00148100       4.50808000       1.97225000
Si      -0.00148000      -2.16795000       4.06841000
Si       3.75363000       1.50108000      -2.92737000
Si      -1.50256000      -3.75511000      -2.92737000
Si       2.30591000      -4.56142000      -0.09240000
Si      -0.00148000      -4.50807000       1.97225000
Si      -3.75659000      -1.50107000      -2.92737000
Si      -4.56291000       2.30739000      -0.09240000
Si      -3.75659000       1.50108000      -2.92737000
Si       4.55994000      -2.30739000      -0.09240000
Al       2.16647000       0.00000000       4.06841000
Si       3.75363000      -1.50107000      -2.92737000
Si       4.55994000       2.30739000      -0.09240000
Si       4.50659000       0.00000000       1.97225000
O       -4.75448000       1.90484000      -4.12435000
O        4.51144000      -1.54957000      -1.50988000
O        4.15618000      -1.30950000       1.10458000
O        6.06102000      -2.83604000       0.16246000
O        3.57176000       0.00000000       3.28378000
O        2.47081000       0.00000000       5.64912000
O        4.75152000      -1.90484000      -4.12435000
O       -1.31098000       4.15766000       1.10458000
O       -6.06398000       0.00000000       2.39034000
O        1.54809000      -4.51292000      -1.50988000
O       -4.15914000       1.30950000       1.10458000
O       -3.57472000       0.00000000       3.28378000
O       -2.47377000       0.00000000       5.64912000
O       -1.55106000       4.51293000      -1.50988000
O       -1.31583000      -1.31435000       3.69614000
O       -1.31583000       1.31435000       3.69614000
O       -1.90632000       4.75300000      -4.12435000
O       -0.00148000       3.22646000      -3.18223000
O       -4.75448000      -1.90484000      -4.12435000
O       -3.22794000       0.00000000      -3.18223000
O        4.15618000       1.30950000       1.10458000
O        6.06102000       2.83604000       0.16246000
O        6.06102000       0.00000000       2.39034000
O       -2.83752000       6.06250000       0.16246000
O       -3.57351000       3.57203000      -0.11817000
O       -0.00147900       6.06250000       2.39034000
O       -0.00148000      -3.57324000       3.28378000
O       -0.00148000      -2.47229000       5.64912000
O       -2.49196000       2.49048000      -2.90159000
O        1.54809000       4.51293000      -1.50988000
O        1.30802000       4.15766000       1.10458000
O        2.83456000       6.06250000       0.16246000
O        3.57054000       3.57203000      -0.11817000
O       -4.51441000      -1.54957000      -1.50988000
O       -4.15914000      -1.30950000       1.10458000
O       -6.06398000      -2.83604000       0.16246000
O       -3.57351000      -3.57202000      -0.11817000
O        1.90336000      -4.75300000      -4.12435000
O       -4.51441000       1.54958000      -1.50988000
O       -6.06398000       2.83604000       0.16246000
O        1.31287000      -1.31435000       3.69614000
O        4.51144000       1.54958000      -1.50988000
O        4.75152000       1.90484000      -4.12435000
O        3.22498000       0.00000000      -3.18223000
O       -1.90632000      -4.75300000      -4.12435000
O       -2.49196000      -2.49047000      -2.90159000
O        1.30802000      -4.15766000       1.10458000
O        2.83456000      -6.06250000       0.16246000
O        3.57054000      -3.57202000      -0.11817000
O       -0.00148000      -6.06250000       2.39034000
O       -0.00148000      -3.22646000      -3.18223000
O        2.48899000      -2.49047000      -2.90159000
O       -1.55106000      -4.51292000      -1.50988000
O       -1.31098000      -4.15766000       1.10458000
O       -2.83752000      -6.06250000       0.16246000
O       -0.00148000       3.57324000       3.28378000
O       -0.00148000       2.47229000       5.64912000
O        1.31287000       1.31435000       3.69614000
O        1.90336000       4.75300000      -4.12435000
O        2.48899000       2.49048000      -2.90159000
H       -5.36195000       2.15063000      -4.85302000
H        6.97374000      -3.15748000       0.31742000
H        2.65609000       0.00000000       6.61144000
H        5.35899000      -2.15063000      -4.85302000
H       -7.01035000       0.00000000       2.64488000
H       -2.65905000       0.00000000       6.61144000
H       -2.15211000       5.36047000      -4.85302000
H       -5.36195000      -2.15063000      -4.85302000
H        6.97374000       3.15748000       0.31742000
H        7.00739000       0.00000000       2.64488000
H       -3.15896000       6.97522000       0.31742000
H       -0.00148000       7.00887000       2.64488000
H       -0.00148000      -2.65757000       6.61144000
H        3.15600000       6.97522000       0.31742000
H       -6.97670000      -3.15748000       0.31742000
H        2.14915000      -5.36047000      -4.85302000
H       -6.97670000       3.15748000       0.31742000
H        5.35899000       2.15063000      -4.85302000
H       -2.15211000      -5.36047000      -4.85302000
H        3.15600000      -6.97522000       0.31742000
H       -0.00148000      -7.00887000       2.64488000
H       -3.15896000      -6.97522000       0.31742000
H       -0.00148000       2.65757000       6.61144000
H        2.14915000       5.36047000      -4.85302000
