109
Properties=species:S:1:pos:R:3 pbc="F F F"
Sr       0.02284800      -0.02229700      -0.02587900
Si      -2.16462000      -0.00333000       4.06088000
Si      -1.49775000       3.75178000      -2.93490000
Si       2.31072000       4.55810000      -0.09993000
Si      -4.55810000      -2.31072000      -0.09993000
Si      -4.50475000      -0.00332400       1.96472000
Al       1.50440000      -3.75844000      -2.93490000
Si      -2.30406000      -4.56475000      -0.09993000
Si       0.00333000       2.16462000       4.06088000
Si       1.50440000       3.75178000      -2.93490000
Si      -2.30406000       4.55810000      -0.09993000
Si       0.00332700       4.50475000       1.96472000
Si       0.00333000      -2.17128000       4.06088000
Si       3.75844000       1.49775000      -2.93490000
Si      -1.49775000      -3.75844000      -2.93490000
Si       2.31072000      -4.56475000      -0.09993000
Si       0.00333000      -4.51140000       1.96472000
Si      -3.75178000      -1.50439900      -2.93490000
Si      -4.55810000       2.30406000      -0.09993000
Si      -3.75178000       1.49775000      -2.93490000
Si       4.56475000      -2.31072000      -0.09993000
Si       2.17128000      -0.00333000       4.06088000
Al       3.75844000      -1.50440000      -2.93490000
Si       4.56475000       2.30406000      -0.09993000
Si       4.51140000      -0.00333000       1.96472000
O       -4.74967000       1.90151000      -4.13188000
O        4.51625000      -1.55290000      -1.51742000
O        4.16099000      -1.31283000       1.09705000
O        6.06583000      -2.83936000       0.15493000
O        3.57657000      -0.00333000       3.27625000
O        2.47562000      -0.00333000       5.64158000
O        4.75633000      -1.90816000      -4.13188000
O       -1.30617000       4.15433000       1.09705000
O       -6.05917000      -0.00333500       2.38281000
O        1.55290000      -4.51625000      -1.51742000
O       -4.15433000       1.30617000       1.09705000
O       -3.56991000      -0.00333100       3.27625000
O       -2.46896000      -0.00333000       5.64158000
O       -1.54625000       4.50960000      -1.51742000
O       -1.31102000      -1.31768000       3.68861000
O       -1.31102000       1.31102000       3.68861000
O       -1.90151000       4.74967000      -4.13188000
O        0.00333000       3.22314000      -3.18976000
O       -4.74967000      -1.90816000      -4.13188000
O       -3.22313000      -0.00333000      -3.18976000
O        4.16099000       1.30617000       1.09705000
O        6.06583000       2.83271000       0.15493000
O        6.06583000      -0.00333000       2.38281000
O       -2.83271000       6.05917000       0.15493000
O       -3.56870000       3.56870000      -0.12571000
O        0.00333300       6.05917000       2.38281000
O        0.00333000      -3.57657000       3.27625000
O        0.00333000      -2.47562000       5.64158000
O       -2.48715000       2.48715000      -2.90913000
O        1.55290000       4.50960000      -1.51742000
O        1.31283000       4.15433000       1.09705000
O        2.83937000       6.05917000       0.15493000
O        3.57535000       3.56870000      -0.12571000
O       -4.50960000      -1.55290000      -1.51742000
O       -4.15433000      -1.31283000       1.09705000
O       -6.05917000      -2.83936000       0.15493000
O       -3.56870000      -3.57535000      -0.12571000
O        1.90817000      -4.75633000      -4.13188000
O       -4.50960000       1.54625000      -1.51742000
O       -6.05917000       2.83271000       0.15493000
O        1.31768000      -1.31768000       3.68861000
O        4.51625000       1.54625000      -1.51742000
O        4.75633000       1.90151000      -4.13188000
O        3.22979000      -0.00333000      -3.18976000
O       -1.90151000      -4.75633000      -4.13188000
O       -2.48715000      -2.49380000      -2.90913000
O        1.31283000      -4.16099000       1.09705000
O        2.83937000      -6.06583000       0.15493000
O        3.57535000      -3.57535000      -0.12571000
O        0.00333000      -6.06583000       2.38281000
O        0.00333000      -3.22979000      -3.18976000
O        2.49380000      -2.49380000      -2.90913000
O       -1.54625000      -4.51625000      -1.51742000
O       -1.30617000      -4.16099000       1.09705000
O       -2.83271000      -6.06583000       0.15493000
O        0.00333000       3.56991000       3.27625000
O        0.00333000       2.46896000       5.64158000
O        1.31768000       1.31102000       3.68861000
O        1.90817000       4.74967000      -4.13188000
O        2.49380000       2.48715000      -2.90913000
H       -5.35714000       2.14730000      -4.86056000
H        6.97855000      -3.16081000       0.30989000
H        2.66089000      -0.00333000       6.60391000
H        5.36380000      -2.15396000      -4.86056000
H       -7.00554000      -0.00332900       2.63735000
H       -2.65424000      -0.00333000       6.60391000
H       -2.14730000       5.35714000      -4.86056000
H       -5.35714000      -2.15396000      -4.86056000
H        6.97855000       3.15415000       0.30989000
H        7.01219000      -0.00333000       2.63735000
H       -3.15415000       6.97189000       0.30989000
H        0.00332900       7.00554000       2.63735000
H        0.00333000      -2.66089000       6.60391000
H        3.16081000       6.97189000       0.30989000
H       -6.97189000      -3.16081000       0.30989000
H        2.15396000      -5.36380000      -4.86056000
H       -6.97189000       3.15415000       0.30989000
H        5.36380000       2.14730000      -4.86056000
H       -2.14730000      -5.36380000      -4.86056000
H        3.16081000      -6.97855000       0.30989000
H        0.00333000      -7.01219000       2.63735000
H       -3.15415000      -6.97855000       0.30989000
H        0.00333000       2.65424000       6.60391000
H        2.15396000       5.35714000      -4.86056000
