109
Properties=species:S:1:pos:R:3 pbc="F F F"
Ba       0.01998500       0.02074100       0.02884000
Si      -2.16514000       0.00276000       4.06698000
Si      -1.49827000       3.75787000      -2.92879000
Si       2.31020000       4.56418000      -0.09383000
Si      -4.55862000      -2.30463000      -0.09383000
Si      -4.50527000       0.00276700       1.97083000
Si       1.50388000      -3.75236000      -2.92879000
Si      -2.30458000      -4.55867000      -0.09383000
Al       0.00281000       2.17071000       4.06698000
Si       1.50388000       3.75787000      -2.92879000
Si      -2.30458000       4.56418000      -0.09383000
Si       0.00281000       4.51083000       1.97083000
Si       0.00281000      -2.16519000       4.06698000
Si       3.75792000       1.50383000      -2.92879000
Si      -1.49827000      -3.75236000      -2.92879000
Si       2.31020000      -4.55867000      -0.09383000
Si       0.00281000      -4.50532000       1.97083000
Si      -3.75230000      -1.49832000      -2.92879000
Si      -4.55862000       2.31014000      -0.09383000
Si      -3.75230000       1.50383000      -2.92879000
Si       4.56423000      -2.30463000      -0.09383000
Si       2.17076000       0.00276000       4.06698000
Si       3.75792000      -1.49832000      -2.92879000
Al       4.56423000       2.31014000      -0.09383000
Si       4.51088000       0.00276000       1.97083000
O       -4.75019000       1.90759000      -4.12578000
O        4.51573000      -1.54682000      -1.51131000
O        4.16047000      -1.30674000       1.10316000
O        6.06531000      -2.83328000       0.16103000
O        3.57605000       0.00276000       3.28236000
O        2.47510000       0.00276000       5.64769000
O        4.75581000      -1.90208000      -4.12578000
O       -1.30669000       4.16042000       1.10316000
O       -6.05969000       0.00275400       2.38891000
O        1.55238000      -4.51017000      -1.51131000
O       -4.15485000       1.31226000       1.10316000
O       -3.57043000       0.00275900       3.28236000
O       -2.46948000       0.00276000       5.64769000
O       -1.54677000       4.51568000      -1.51131000
O       -1.31154000      -1.31159000       3.69472000
O       -1.31154000       1.31711000       3.69472000
O       -1.90203000       4.75576000      -4.12578000
O        0.00281000       3.22922000      -3.18365000
O       -4.75019000      -1.90208000      -4.12578000
O       -3.22365000       0.00276000      -3.18365000
O        4.16047000       1.31226000       1.10316000
O        6.06531000       2.83879000       0.16103000
O        6.06531000       0.00276000       2.38891000
O       -2.83323000       6.06526000       0.16103000
O       -3.56922000       3.57478000      -0.11960000
O        0.00281000       6.06526000       2.38891000
O        0.00281000      -3.57048000       3.28236000
O        0.00281000      -2.46953000       5.64769000
O       -2.48767000       2.49323000      -2.90302000
O        1.55238000       4.51568000      -1.51131000
O        1.31231000       4.16042000       1.10316000
O        2.83885000       6.06526000       0.16103000
O        3.57483000       3.57478000      -0.11960000
O       -4.51012000      -1.54682000      -1.51131000
O       -4.15485000      -1.30674000       1.10316000
O       -6.05969000      -2.83328000       0.16103000
O       -3.56922000      -3.56927000      -0.11960000
O        1.90765000      -4.75024000      -4.12578000
O       -4.51012000       1.55233000      -1.51131000
O       -6.05969000       2.83879000       0.16103000
O        1.31716000      -1.31159000       3.69472000
O        4.51573000       1.55233000      -1.51131000
O        4.75581000       1.90759000      -4.12578000
O        3.22927000       0.00276000      -3.18365000
O       -1.90203000      -4.75024000      -4.12578000
O       -2.48767000      -2.48772000      -2.90302000
O        1.31231000      -4.15491000       1.10316000
O        2.83885000      -6.05974000       0.16103000
O        3.57483000      -3.56927000      -0.11960000
O        0.00281000      -6.05974000       2.38891000
O        0.00281000      -3.22371000      -3.18365000
O        2.49328000      -2.48772000      -2.90302000
O       -1.54677000      -4.51017000      -1.51131000
O       -1.30669000      -4.15491000       1.10316000
O       -2.83323000      -6.05974000       0.16103000
O        0.00281000       3.57599000       3.28236000
O        0.00281000       2.47504000       5.64769000
O        1.31716000       1.31711000       3.69472000
O        1.90765000       4.75576000      -4.12578000
O        2.49328000       2.49323000      -2.90302000
H       -5.35766000       2.15339000      -4.85445000
H        6.97803000      -3.15472000       0.31600000
H        2.66037000       0.00276000       6.61002000
H        5.36328000      -2.14788000      -4.85445000
H       -7.00606000       0.00276100       2.64345000
H       -2.65476000       0.00276000       6.61002000
H       -2.14782000       5.36323000      -4.85445000
H       -5.35766000      -2.14788000      -4.85445000
H        6.97803000       3.16024000       0.31600000
H        7.01167000       0.00276000       2.64345000
H       -3.15467000       6.97798000       0.31600000
H        0.00281000       7.01162000       2.64345000
H        0.00281000      -2.65481000       6.61002000
H        3.16029000       6.97798000       0.31600000
H       -6.97241000      -3.15472000       0.31600000
H        2.15344000      -5.35772000      -4.85445000
H       -6.97241000       3.16024000       0.31600000
H        5.36328000       2.15339000      -4.85445000
H       -2.14782000      -5.35772000      -4.85445000
H        3.16029000      -6.97247000       0.31600000
H        0.00281000      -7.00611000       2.64345000
H       -3.15467000      -6.97247000       0.31600000
H        0.00281000       2.66032000       6.61002000
H        2.15344000       5.36323000      -4.85445000
