145
Properties=species:S:1:pos:R:3 pbc="F F F"
Sr       0.04418000      -0.01923300       0.00272500
Si      -3.34515000       1.55412000       5.53711000
Si       3.75722000      -3.35048000       1.55584000
Si      -3.74829000       3.34875000      -1.55412000
Al       5.54071000       1.55412000       3.35048000
Si      -5.53178000      -1.55584000       3.35048000
Si       3.35408000      -1.55584000      -5.53538000
Si       1.55944000       3.34875000       3.75362000
Si      -1.55051000      -3.35048000      -3.75189000
Al       3.75722000      -3.35048000      -1.55412000
Si       3.35408000       1.55412000      -5.53538000
Si      -3.74829000       3.34875000       1.55584000
Si       5.54071000       1.55412000      -3.34875000
Si      -5.53178000       1.55412000      -3.34875000
Si      -3.34515000      -1.55584000       5.53711000
Si       1.55944000       3.34875000      -3.75189000
Si      -3.74829000      -3.35048000       1.55584000
Si      -1.55051000      -3.35048000       3.75362000
Si       5.54071000      -1.55584000       3.35048000
Si       3.35408000       1.55412000       5.53711000
Si      -5.53178000       1.55412000       3.35048000
Si      -3.34515000      -1.55584000      -5.53538000
Si       1.55944000      -3.35048000       3.75362000
Si       3.75722000       3.34875000      -1.55412000
Si      -1.55051000       3.34875000      -3.75189000
Si      -3.34515000       1.55412000      -5.53538000
Si      -3.74829000      -3.35048000      -1.55412000
Si       5.54071000      -1.55584000      -3.34875000
Si      -5.53178000      -1.55584000      -3.34875000
Si       1.55944000      -3.35048000      -3.75189000
Si       3.35408000      -1.55584000       5.53711000
Si       3.75722000       3.34875000       1.55584000
Si      -1.55051000       3.34875000       3.75362000
O       -6.92327000       2.36040000       3.43965000
O        1.70993000       4.74024000      -4.54703000
O        2.36573000       3.43793000      -2.36040000
O       -3.44361000      -3.06995000       0.00086000
O       -4.54343000      -4.74197000       1.70632000
O       -2.35680000      -3.43965000       2.36213000
O        0.00447000      -3.06995000       3.44894000
O       -1.70099000      -4.74197000       4.54876000
O       -2.14687000      -2.15219000      -4.64364000
O       -4.73664000      -1.70632000       4.74197000
O       -4.64003000      -2.15219000       2.15219000
O       -2.35680000      -3.43965000      -2.36040000
O        4.55236000      -4.74197000      -1.70460000
O        4.64897000      -2.15219000      -2.15047000
O        2.36573000      -3.43965000      -2.36040000
O        4.74557000       1.70460000      -4.74024000
O       -5.83646000      -0.00086000       3.06995000
O       -3.06462000      -0.00086000       5.84179000
O       -4.73664000       1.70460000       4.74197000
O        3.45254000      -3.06995000       0.00086000
O       -2.14687000       2.15047000       4.64536000
O       -3.43432000       2.36040000       6.92860000
O        4.55236000      -4.74197000       1.70632000
O        4.64897000      -2.15219000       2.15219000
O       -6.92327000       2.36040000      -3.43793000
O       -2.14687000      -2.15219000       4.64536000
O        1.70993000      -4.74197000      -4.54703000
O        3.07355000      -0.00086000      -5.84006000
O        4.74557000      -1.70632000      -4.74024000
O        2.15580000      -2.15219000      -4.64364000
O        3.44325000      -2.36213000      -6.92687000
O        0.00447000       3.06822000       3.44894000
O        1.70993000       4.74024000       4.54876000
O        2.15580000       2.15047000       4.64536000
O        2.36573000       3.43793000       2.36213000
O        0.00447000      -3.06995000      -3.44721000
O       -1.70099000      -4.74197000      -4.54703000
O        3.44325000      -2.36213000       6.92860000
O        4.55236000       4.74024000       1.70632000
O       -1.70099000       4.74024000       4.54876000
O        2.36573000      -3.43965000       2.36213000
O       -3.44361000       3.06822000       0.00086000
O       -4.54343000       4.74024000      -1.70460000
O       -4.64003000       2.15047000      -2.15047000
O       -2.35680000       3.43793000      -2.36040000
O        5.84539000      -0.00086000       3.06995000
O        4.74557000       1.70460000       4.74197000
O        4.64897000       2.15047000       2.15219000
O        6.93220000       2.36040000       3.43965000
O       -6.92327000      -2.36213000       3.43965000
O        1.70993000      -4.74197000       4.54876000
O        2.15580000      -2.15219000       4.64536000
O        3.45254000       3.06822000       0.00086000
O       -3.06462000      -0.00086000      -5.84006000
O       -4.73664000      -1.70632000      -4.74024000
O       -3.43432000      -2.36213000      -6.92687000
O        4.74557000      -1.70632000       4.74197000
O        6.93220000      -2.36213000       3.43965000
O        3.07355000      -0.00086000       5.84179000
O        3.44325000       2.36040000       6.92860000
O       -3.43432000      -2.36213000       6.92860000
O        0.00447000       3.06822000      -3.44721000
O        2.15580000       2.15047000      -4.64364000
O        3.44325000       2.36040000      -6.92687000
O       -4.54343000       4.74024000       1.70632000
O       -4.64003000       2.15047000       2.15219000
O       -2.35680000       3.43793000       2.36213000
O        5.84539000      -0.00086000      -3.06822000
O        4.64897000       2.15047000      -2.15047000
O        6.93220000       2.36040000      -3.43793000
O       -5.83646000      -0.00086000      -3.06822000
O       -4.73664000       1.70460000      -4.74024000
O        4.55236000       4.74024000      -1.70460000
O       -1.70099000       4.74024000      -4.54703000
O       -2.14687000       2.15047000      -4.64364000
O       -3.43432000       2.36040000      -6.92687000
O       -4.54343000      -4.74197000      -1.70460000
O       -4.64003000      -2.15219000      -2.15047000
O        6.93220000      -2.36213000      -3.43793000
O       -6.92327000      -2.36213000      -3.43793000
H       -7.76991000       2.85098000       3.49391000
H        1.80154000       5.58740000      -5.03112000
H       -5.02752000      -5.58912000       1.79794000
H       -1.79261000      -5.58912000       5.03284000
H        5.03645000      -5.58912000      -1.79621000
H       -3.48858000       2.85098000       7.77523000
H        5.03645000      -5.58912000       1.79794000
H       -7.76991000       2.85098000      -3.49218000
H        1.80154000      -5.58912000      -5.03112000
H        3.49751000      -2.85270000      -7.77351000
H        1.80154000       5.58740000       5.03284000
H       -1.79261000      -5.58912000      -5.03112000
H        3.49751000      -2.85270000       7.77523000
H        5.03645000       5.58740000       1.79794000
H       -1.79261000       5.58740000       5.03284000
H       -5.02752000       5.58740000      -1.79621000
H        7.77884000       2.85098000       3.49391000
H       -7.76991000      -2.85270000       3.49391000
H        1.80154000      -5.58912000       5.03284000
H       -3.48858000      -2.85270000      -7.77351000
H        7.77884000      -2.85270000       3.49391000
H        3.49751000       2.85098000       7.77523000
H       -3.48858000      -2.85270000       7.77523000
H        3.49751000       2.85098000      -7.77351000
H       -5.02752000       5.58740000       1.79794000
H        7.77884000       2.85098000      -3.49218000
H        5.03645000       5.58740000      -1.79621000
H       -1.79261000       5.58740000      -5.03112000
H       -3.48858000       2.85098000      -7.77351000
H       -5.02752000      -5.58912000      -1.79621000
H        7.77884000      -2.85270000      -3.49218000
H       -7.76991000      -2.85270000      -3.49218000
