145
Properties=species:S:1:pos:R:3 pbc="F F F"
Sr       0.02027300      -0.03036500      -0.01423000
Si      -3.34942000       1.55412000       5.53433000
Al       3.75295000      -3.35048000       1.55307000
Si      -3.75256000       3.34875000      -1.55689000
Si       5.53644000       1.55412000       3.34770000
Si      -5.53605000      -1.55584000       3.34770000
Si       3.34981000      -1.55584000      -5.53816000
Si       1.55517000       3.34875000       3.75084000
Si      -1.55479000      -3.35048000      -3.75467000
Si       3.75295000      -3.35048000      -1.55689000
Si       3.34981000       1.55412000      -5.53816000
Si      -3.75256000       3.34875000       1.55307000
Si       5.53644000       1.55412000      -3.35153000
Si      -5.53605000       1.55412000      -3.35153000
Si      -3.34942000      -1.55584000       5.53433000
Si       1.55517000       3.34875000      -3.75467000
Si      -3.75256000      -3.35048000       1.55307000
Si      -1.55479000      -3.35048000       3.75084000
Si       5.53644000      -1.55584000       3.34770000
Si       3.34981000       1.55412000       5.53433000
Si      -5.53605000       1.55412000       3.34770000
Si      -3.34942000      -1.55584000      -5.53816000
Si       1.55517000      -3.35048000       3.75084000
Si       3.75295000       3.34875000      -1.55689000
Si      -1.55479000       3.34875000      -3.75467000
Al      -3.34942000       1.55412000      -5.53816000
Si      -3.75256000      -3.35048000      -1.55689000
Si       5.53644000      -1.55584000      -3.35153000
Si      -5.53605000      -1.55584000      -3.35153000
Si       1.55517000      -3.35048000      -3.75467000
Si       3.34981000      -1.55584000       5.53433000
Si       3.75295000       3.34875000       1.55307000
Si      -1.55479000       3.34875000       3.75084000
O       -6.92754000       2.36040000       3.43687000
O        1.70565000       4.74024000      -4.54981000
O        2.36146000       3.43793000      -2.36318000
O       -3.44788000      -3.06995000      -0.00191000
O       -4.54770000      -4.74197000       1.70355000
O       -2.36107000      -3.43965000       2.35935000
O        0.00019000      -3.06995000       3.44616000
O       -1.70527000      -4.74197000       4.54598000
O       -2.15114000      -2.15219000      -4.64641000
O       -4.74091000      -1.70632000       4.73919000
O       -4.64431000      -2.15219000       2.14942000
O       -2.36107000      -3.43965000      -2.36318000
O        4.54809000      -4.74197000      -1.70737000
O        4.64469000      -2.15219000      -2.15325000
O        2.36146000      -3.43965000      -2.36318000
O        4.74130000       1.70460000      -4.74302000
O       -5.84073000      -0.00086000       3.06717000
O       -3.06889000      -0.00086000       5.83901000
O       -4.74091000       1.70460000       4.73919000
O        3.44827000      -3.06995000      -0.00191000
O       -2.15114000       2.15047000       4.64259000
O       -3.43859000       2.36040000       6.92582000
O        4.54809000      -4.74197000       1.70355000
O        4.64469000      -2.15219000       2.14942000
O       -6.92754000       2.36040000      -3.44070000
O       -2.15114000      -2.15219000       4.64259000
O        1.70565000      -4.74197000      -4.54981000
O        3.06928000      -0.00086000      -5.84284000
O        4.74130000      -1.70632000      -4.74302000
O        2.15153000      -2.15219000      -4.64641000
O        3.43898000      -2.36213000      -6.92965000
O        0.00019000       3.06822000       3.44616000
O        1.70565000       4.74024000       4.54598000
O        2.15153000       2.15047000       4.64259000
O        2.36146000       3.43793000       2.35935000
O        0.00019000      -3.06995000      -3.44999000
O       -1.70527000      -4.74197000      -4.54981000
O        3.43898000      -2.36213000       6.92582000
O        4.54809000       4.74024000       1.70355000
O       -1.70527000       4.74024000       4.54598000
O        2.36146000      -3.43965000       2.35935000
O       -3.44788000       3.06822000      -0.00191000
O       -4.54770000       4.74024000      -1.70737000
O       -4.64431000       2.15047000      -2.15325000
O       -2.36107000       3.43793000      -2.36318000
O        5.84112000      -0.00086000       3.06717000
O        4.74130000       1.70460000       4.73919000
O        4.64469000       2.15047000       2.14942000
O        6.92793000       2.36040000       3.43687000
O       -6.92754000      -2.36213000       3.43687000
O        1.70565000      -4.74197000       4.54598000
O        2.15153000      -2.15219000       4.64259000
O        3.44827000       3.06822000      -0.00191000
O       -3.06889000      -0.00086000      -5.84284000
O       -4.74091000      -1.70632000      -4.74302000
O       -3.43859000      -2.36213000      -6.92965000
O        4.74130000      -1.70632000       4.73919000
O        6.92793000      -2.36213000       3.43687000
O        3.06928000      -0.00086000       5.83901000
O        3.43898000       2.36040000       6.92582000
O       -3.43859000      -2.36213000       6.92582000
O        0.00019000       3.06822000      -3.44999000
O        2.15153000       2.15047000      -4.64641000
O        3.43898000       2.36040000      -6.92965000
O       -4.54770000       4.74024000       1.70355000
O       -4.64431000       2.15047000       2.14942000
O       -2.36107000       3.43793000       2.35935000
O        5.84112000      -0.00086000      -3.07100000
O        4.64469000       2.15047000      -2.15325000
O        6.92793000       2.36040000      -3.44070000
O       -5.84073000      -0.00086000      -3.07100000
O       -4.74091000       1.70460000      -4.74302000
O        4.54809000       4.74024000      -1.70737000
O       -1.70527000       4.74024000      -4.54981000
O       -2.15114000       2.15047000      -4.64641000
O       -3.43859000       2.36040000      -6.92965000
O       -4.54770000      -4.74197000      -1.70737000
O       -4.64431000      -2.15219000      -2.15325000
O        6.92793000      -2.36213000      -3.44070000
O       -6.92754000      -2.36213000      -3.44070000
H       -7.77418000       2.85098000       3.49113000
H        1.79727000       5.58740000      -5.03389000
H       -5.03179000      -5.58912000       1.79516000
H       -1.79688000      -5.58912000       5.03007000
H        5.03217000      -5.58912000      -1.79899000
H       -3.49285000       2.85098000       7.77246000
H        5.03217000      -5.58912000       1.79516000
H       -7.77418000       2.85098000      -3.49496000
H        1.79727000      -5.58912000      -5.03389000
H        3.49324000      -2.85270000      -7.77629000
H        1.79727000       5.58740000       5.03007000
H       -1.79688000      -5.58912000      -5.03389000
H        3.49324000      -2.85270000       7.77246000
H        5.03217000       5.58740000       1.79516000
H       -1.79688000       5.58740000       5.03007000
H       -5.03179000       5.58740000      -1.79899000
H        7.77457000       2.85098000       3.49113000
H       -7.77418000      -2.85270000       3.49113000
H        1.79727000      -5.58912000       5.03007000
H       -3.49285000      -2.85270000      -7.77629000
H        7.77457000      -2.85270000       3.49113000
H        3.49324000       2.85098000       7.77246000
H       -3.49285000      -2.85270000       7.77246000
H        3.49324000       2.85098000      -7.77629000
H       -5.03179000       5.58740000       1.79516000
H        7.77457000       2.85098000      -3.49496000
H        5.03217000       5.58740000      -1.79899000
H       -1.79688000       5.58740000      -5.03389000
H       -3.49285000       2.85098000      -7.77629000
H       -5.03179000      -5.58912000      -1.79899000
H        7.77457000      -2.85270000      -3.49496000
H       -7.77418000      -2.85270000      -3.49496000
