109
Properties=species:S:1:pos:R:3 pbc="F F F"
Ba      -0.03482600      -0.01158700       0.00183000
Si      -2.17218000      -0.00139000       4.06442000
Si      -1.50530000       3.75372000      -2.93135000
Si       2.30316000       4.56004000      -0.09639000
Si      -4.56565000      -2.30878000      -0.09639000
Si      -4.51230000      -0.00139000       1.96827000
Si       1.49685000      -3.75650000      -2.93135000
Al      -2.31162000      -4.56281000      -0.09639000
Si      -0.00423000       2.16656000       4.06442000
Si       1.49685000       3.75372000      -2.93135000
Si      -2.31162000       4.56004000      -0.09639000
Si      -0.00423000       4.50669000       1.96827000
Si      -0.00423000      -2.16934000       4.06442000
Si       3.75088000       1.49969000      -2.93135000
Si      -1.50530000      -3.75650000      -2.93135000
Si       2.30316000      -4.56281000      -0.09639000
Si      -0.00423000      -4.50946000       1.96827000
Si      -3.75934000      -1.50246000      -2.93135000
Al      -4.56565000       2.30600000      -0.09639000
Si      -3.75934000       1.49969000      -2.93135000
Si       4.55720000      -2.30878000      -0.09639000
Si       2.16372000      -0.00139000       4.06442000
Si       3.75088000      -1.50246000      -2.93135000
Si       4.55720000       2.30600000      -0.09639000
Si       4.50385000      -0.00139000       1.96827000
O       -4.75723000       1.90345000      -4.12834000
O        4.50870000      -1.55096000      -1.51387000
O        4.15343000      -1.31089000       1.10060000
O        6.05827000      -2.83742000       0.15847000
O        3.56901000      -0.00139000       3.27980000
O        2.46806000      -0.00139000       5.64513000
O        4.74877000      -1.90622000      -4.12834000
O       -1.31373000       4.15627000       1.10060000
O       -6.06673000      -0.00139000       2.38635000
O        1.54535000      -4.51431000      -1.51387000
O       -4.16189000       1.30811000       1.10060000
O       -3.57747000      -0.00139000       3.27980000
O       -2.47652000      -0.00139000       5.64513000
O       -1.55380000       4.51154000      -1.51387000
O       -1.31858000      -1.31574000       3.69215000
O       -1.31858000       1.31296000       3.69215000
O       -1.90907000       4.75161000      -4.12834000
O       -0.00423000       3.22508000      -3.18621000
O       -4.75723000      -1.90622000      -4.12834000
O       -3.23069000      -0.00139000      -3.18621000
O        4.15343000       1.30811000       1.10060000
O        6.05827000       2.83465000       0.15847000
O        6.05827000      -0.00139000       2.38635000
O       -2.84027000       6.06111000       0.15847000
O       -3.57625000       3.57064000      -0.12216000
O       -0.00423000       6.06111000       2.38635000
O       -0.00423000      -3.57463000       3.27980000
O       -0.00423000      -2.47368000       5.64513000
O       -2.49470000       2.48909000      -2.90558000
O        1.54535000       4.51154000      -1.51387000
O        1.30527000       4.15627000       1.10060000
O        2.83181000       6.06111000       0.15847000
O        3.56780000       3.57064000      -0.12216000
O       -4.51715000      -1.55096000      -1.51387000
O       -4.16189000      -1.31089000       1.10060000
O       -6.06673000      -2.83742000       0.15847000
O       -3.57625000      -3.57341000      -0.12216000
O        1.90061000      -4.75439000      -4.12834000
O       -4.51715000       1.54819000      -1.51387000
O       -6.06673000       2.83465000       0.15847000
O        1.31012000      -1.31574000       3.69215000
O        4.50870000       1.54819000      -1.51387000
O        4.74877000       1.90345000      -4.12834000
O        3.22223000      -0.00139000      -3.18621000
O       -1.90907000      -4.75439000      -4.12834000
O       -2.49470000      -2.49186000      -2.90558000
O        1.30527000      -4.15905000       1.10060000
O        2.83181000      -6.06389000       0.15847000
O        3.56780000      -3.57341000      -0.12216000
O       -0.00423000      -6.06389000       2.38635000
O       -0.00423000      -3.22785000      -3.18621000
O        2.48625000      -2.49186000      -2.90558000
O       -1.55380000      -4.51431000      -1.51387000
O       -1.31373000      -4.15905000       1.10060000
O       -2.84027000      -6.06389000       0.15847000
O       -0.00423000       3.57185000       3.27980000
O       -0.00423000       2.47090000       5.64513000
O        1.31012000       1.31296000       3.69215000
O        1.90061000       4.75161000      -4.12834000
O        2.48625000       2.48909000      -2.90558000
H       -5.36470000       2.14924000      -4.85701000
H        6.97099000      -3.15887000       0.31344000
H        2.65334000      -0.00139000       6.60746000
H        5.35624000      -2.15202000      -4.85701000
H       -7.01310000      -0.00139000       2.64089000
H       -2.66180000      -0.00139000       6.60746000
H       -2.15486000       5.35908000      -4.85701000
H       -5.36470000      -2.15202000      -4.85701000
H        6.97099000       3.15609000       0.31344000
H        7.00464000      -0.00139000       2.64089000
H       -3.16171000       6.97383000       0.31344000
H       -0.00423000       7.00748000       2.64089000
H       -0.00423000      -2.65895000       6.60746000
H        3.15325000       6.97383000       0.31344000
H       -6.97945000      -3.15887000       0.31344000
H        2.14640000      -5.36186000      -4.85701000
H       -6.97945000       3.15609000       0.31344000
H        5.35624000       2.14924000      -4.85701000
H       -2.15486000      -5.36186000      -4.85701000
H        3.15325000      -6.97661000       0.31344000
H       -0.00423000      -7.01025000       2.64089000
H       -3.16171000      -6.97661000       0.31344000
H       -0.00423000       2.65618000       6.60746000
H        2.14640000       5.35908000      -4.85701000
