109
Properties=species:S:1:pos:R:3 pbc="F F F"
Ba      -0.00014400      -0.00013800       0.03665900
Si      -2.16795000       0.00000000       4.06696000
Si      -1.50108000       3.75511000      -2.92881000
Si       2.30739000       4.56143000      -0.09385000
Si      -4.56143000      -2.30739000      -0.09385000
Al      -4.50808000       0.00000000       1.97081000
Si       1.50107000      -3.75511000      -2.92881000
Si      -2.30739000      -4.56142000      -0.09385000
Si       0.00000000       2.16795000       4.06696000
Si       1.50107000       3.75511000      -2.92881000
Si      -2.30739000       4.56143000      -0.09385000
Si      -0.00000100       4.50808000       1.97081000
Si       0.00000000      -2.16795000       4.06696000
Si       3.75511000       1.50108000      -2.92881000
Si      -1.50108000      -3.75511000      -2.92881000
Si       2.30739000      -4.56142000      -0.09385000
Si       0.00000000      -4.50807000       1.97081000
Si      -3.75511000      -1.50107000      -2.92881000
Si      -4.56143000       2.30739000      -0.09385000
Si      -3.75511000       1.50108000      -2.92881000
Si       4.56142000      -2.30739000      -0.09385000
Si       2.16795000       0.00000000       4.06696000
Si       3.75511000      -1.50107000      -2.92881000
Si       4.56142000       2.30739000      -0.09385000
Al       4.50807000       0.00000000       1.97081000
O       -4.75300000       1.90484000      -4.12580000
O        4.51292000      -1.54957000      -1.51133000
O        4.15766000      -1.30950000       1.10314000
O        6.06250000      -2.83604000       0.16101000
O        3.57324000       0.00000000       3.28234000
O        2.47229000       0.00000000       5.64767000
O        4.75300000      -1.90484000      -4.12580000
O       -1.30950000       4.15766000       1.10314000
O       -6.06250000       0.00000000       2.38889000
O        1.54957000      -4.51292000      -1.51133000
O       -4.15766000       1.30950000       1.10314000
O       -3.57324000       0.00000000       3.28234000
O       -2.47229000       0.00000000       5.64767000
O       -1.54958000       4.51293000      -1.51133000
O       -1.31435000      -1.31435000       3.69470000
O       -1.31435000       1.31435000       3.69470000
O       -1.90484000       4.75300000      -4.12580000
O        0.00000000       3.22646000      -3.18367000
O       -4.75300000      -1.90484000      -4.12580000
O       -3.22646000       0.00000000      -3.18367000
O        4.15766000       1.30950000       1.10314000
O        6.06250000       2.83604000       0.16101000
O        6.06250000       0.00000000       2.38889000
O       -2.83604000       6.06250000       0.16101000
O       -3.57203000       3.57203000      -0.11962000
O        0.00000000       6.06250000       2.38889000
O        0.00000000      -3.57324000       3.28234000
O        0.00000000      -2.47229000       5.64767000
O       -2.49048000       2.49048000      -2.90304000
O        1.54957000       4.51293000      -1.51133000
O        1.30950000       4.15766000       1.10314000
O        2.83604000       6.06250000       0.16101000
O        3.57202000       3.57203000      -0.11962000
O       -4.51293000      -1.54957000      -1.51133000
O       -4.15766000      -1.30950000       1.10314000
O       -6.06250000      -2.83604000       0.16101000
O       -3.57203000      -3.57202000      -0.11962000
O        1.90484000      -4.75300000      -4.12580000
O       -4.51293000       1.54958000      -1.51133000
O       -6.06250000       2.83604000       0.16101000
O        1.31435000      -1.31435000       3.69470000
O        4.51292000       1.54958000      -1.51133000
O        4.75300000       1.90484000      -4.12580000
O        3.22646000       0.00000000      -3.18367000
O       -1.90484000      -4.75300000      -4.12580000
O       -2.49048000      -2.49047000      -2.90304000
O        1.30950000      -4.15766000       1.10314000
O        2.83604000      -6.06250000       0.16101000
O        3.57202000      -3.57202000      -0.11962000
O        0.00000000      -6.06250000       2.38889000
O        0.00000000      -3.22646000      -3.18367000
O        2.49047000      -2.49047000      -2.90304000
O       -1.54958000      -4.51292000      -1.51133000
O       -1.30950000      -4.15766000       1.10314000
O       -2.83604000      -6.06250000       0.16101000
O        0.00000000       3.57324000       3.28234000
O        0.00000000       2.47229000       5.64767000
O        1.31435000       1.31435000       3.69470000
O        1.90484000       4.75300000      -4.12580000
O        2.49047000       2.49048000      -2.90304000
H       -5.36047000       2.15063000      -4.85447000
H        6.97522000      -3.15748000       0.31598000
H        2.65757000       0.00000000       6.61000000
H        5.36047000      -2.15063000      -4.85447000
H       -7.00887000       0.00000000       2.64343000
H       -2.65757000       0.00000000       6.61000000
H       -2.15063000       5.36047000      -4.85447000
H       -5.36047000      -2.15063000      -4.85447000
H        6.97522000       3.15748000       0.31598000
H        7.00887000       0.00000000       2.64343000
H       -3.15748000       6.97522000       0.31598000
H        0.00000000       7.00887000       2.64343000
H        0.00000000      -2.65757000       6.61000000
H        3.15748000       6.97522000       0.31598000
H       -6.97522000      -3.15748000       0.31598000
H        2.15063000      -5.36047000      -4.85447000
H       -6.97522000       3.15748000       0.31598000
H        5.36047000       2.15063000      -4.85447000
H       -2.15063000      -5.36047000      -4.85447000
H        3.15748000      -6.97522000       0.31598000
H        0.00000000      -7.00887000       2.64343000
H       -3.15748000      -6.97522000       0.31598000
H        0.00000000       2.65757000       6.61000000
H        2.15063000       5.36047000      -4.85447000
