109
Properties=species:S:1:pos:R:3 pbc="F F F"
Sr       0.53212000      -0.00192400      -0.03385000
Si      -2.16503000       0.00000000       4.06447000
Si      -1.49815000       3.75511000      -2.93131000
Al       2.31031000       4.56143000      -0.09634000
Si      -4.55850000      -2.30739000      -0.09634000
Si      -4.50515000       0.00000000       1.96831000
Si       1.50400000      -3.75511000      -2.93131000
Si      -2.30447000      -4.56142000      -0.09634000
Si       0.00292000       2.16795000       4.06447000
Si       1.50400000       3.75511000      -2.93131000
Si      -2.30447000       4.56143000      -0.09634000
Si       0.00292000       4.50808000       1.96831000
Si       0.00292000      -2.16795000       4.06447000
Si       3.75803000       1.50108000      -2.93131000
Si      -1.49815000      -3.75511000      -2.93131000
Al       2.31031000      -4.56142000      -0.09634000
Si       0.00292000      -4.50807000       1.96831000
Si      -3.75219000      -1.50107000      -2.93131000
Si      -4.55850000       2.30739000      -0.09634000
Si      -3.75219000       1.50108000      -2.93131000
Si       4.56435000      -2.30739000      -0.09634000
Si       2.17087000       0.00000000       4.06447000
Si       3.75803000      -1.50107000      -2.93131000
Si       4.56435000       2.30739000      -0.09634000
Si       4.51100000       0.00000000       1.96831000
O       -4.75008000       1.90484000      -4.12829000
O        4.51585000      -1.54957000      -1.51383000
O        4.16058000      -1.30950000       1.10064000
O        6.06542000      -2.83604000       0.15852000
O        3.57616000       0.00000000       3.27984000
O        2.47521000       0.00000000       5.64517000
O        4.75592000      -1.90484000      -4.12829000
O       -1.30658000       4.15766000       1.10064000
O       -6.05958000       0.00000000       2.38640000
O        1.55250000      -4.51292000      -1.51383000
O       -4.15474000       1.30950000       1.10064000
O       -3.57032000       0.00000000       3.27984000
O       -2.46937000       0.00000000       5.64517000
O       -1.54665000       4.51293000      -1.51383000
O       -1.31143000      -1.31435000       3.69220000
O       -1.31143000       1.31435000       3.69220000
O       -1.90192000       4.75300000      -4.12829000
O        0.00292000       3.22646000      -3.18617000
O       -4.75008000      -1.90484000      -4.12829000
O       -3.22354000       0.00000000      -3.18617000
O        4.16058000       1.30950000       1.10064000
O        6.06542000       2.83604000       0.15852000
O        6.06542000       0.00000000       2.38640000
O       -2.83312000       6.06250000       0.15852000
O       -3.56910000       3.57203000      -0.12212000
O        0.00292000       6.06250000       2.38640000
O        0.00292000      -3.57324000       3.27984000
O        0.00292000      -2.47229000       5.64517000
O       -2.48755000       2.49048000      -2.90554000
O        1.55250000       4.51293000      -1.51383000
O        1.31242000       4.15766000       1.10064000
O        2.83896000       6.06250000       0.15852000
O        3.57495000       3.57203000      -0.12212000
O       -4.51000000      -1.54957000      -1.51383000
O       -4.15474000      -1.30950000       1.10064000
O       -6.05958000      -2.83604000       0.15852000
O       -3.56910000      -3.57202000      -0.12212000
O        1.90776000      -4.75300000      -4.12829000
O       -4.51000000       1.54958000      -1.51383000
O       -6.05958000       2.83604000       0.15852000
O        1.31727000      -1.31435000       3.69220000
O        4.51585000       1.54958000      -1.51383000
O        4.75592000       1.90484000      -4.12829000
O        3.22938000       0.00000000      -3.18617000
O       -1.90192000      -4.75300000      -4.12829000
O       -2.48755000      -2.49047000      -2.90554000
O        1.31242000      -4.15766000       1.10064000
O        2.83896000      -6.06250000       0.15852000
O        3.57495000      -3.57202000      -0.12212000
O        0.00292000      -6.06250000       2.38640000
O        0.00292000      -3.22646000      -3.18617000
O        2.49340000      -2.49047000      -2.90554000
O       -1.54665000      -4.51292000      -1.51383000
O       -1.30658000      -4.15766000       1.10064000
O       -2.83312000      -6.06250000       0.15852000
O        0.00292000       3.57324000       3.27984000
O        0.00292000       2.47229000       5.64517000
O        1.31727000       1.31435000       3.69220000
O        1.90776000       4.75300000      -4.12829000
O        2.49340000       2.49048000      -2.90554000
H       -5.35755000       2.15063000      -4.85697000
H        6.97814000      -3.15748000       0.31348000
H        2.66049000       0.00000000       6.60750000
H        5.36339000      -2.15063000      -4.85697000
H       -7.00595000       0.00000000       2.64094000
H       -2.65465000       0.00000000       6.60750000
H       -2.14771000       5.36047000      -4.85697000
H       -5.35755000      -2.15063000      -4.85697000
H        6.97814000       3.15748000       0.31348000
H        7.01179000       0.00000000       2.64094000
H       -3.15456000       6.97522000       0.31348000
H        0.00292000       7.00887000       2.64094000
H        0.00292000      -2.65757000       6.60750000
H        3.16040000       6.97522000       0.31348000
H       -6.97230000      -3.15748000       0.31348000
H        2.15355000      -5.36047000      -4.85697000
H       -6.97230000       3.15748000       0.31348000
H        5.36339000       2.15063000      -4.85697000
H       -2.14771000      -5.36047000      -4.85697000
H        3.16040000      -6.97522000       0.31348000
H        0.00292000      -7.00887000       2.64094000
H       -3.15456000      -6.97522000       0.31348000
H        0.00292000       2.65757000       6.60750000
H        2.15355000       5.36047000      -4.85697000
