145
Properties=species:S:1:pos:R:3 pbc="F F F"
Ba       0.01504200      -0.04007900      -0.01095100
Si      -3.34942000       1.55267000       5.53437000
Al       3.75295000      -3.35192000       1.55311000
Si      -3.75257000       3.34731000      -1.55685000
Si       5.53643000       1.55267000       3.34774000
Si      -5.53605000      -1.55729000       3.34774000
Si       3.34980000      -1.55729000      -5.53812000
Si       1.55517000       3.34731000       3.75088000
Si      -1.55479000      -3.35192000      -3.75463000
Si       3.75295000      -3.35192000      -1.55685000
Si       3.34980000       1.55267000      -5.53812000
Si      -3.75257000       3.34731000       1.55311000
Si       5.53643000       1.55267000      -3.35149000
Si      -5.53605000       1.55267000      -3.35149000
Si      -3.34942000      -1.55729000       5.53437000
Si       1.55517000       3.34731000      -3.75463000
Si      -3.75257000      -3.35192000       1.55311000
Si      -1.55479000      -3.35192000       3.75088000
Si       5.53643000      -1.55729000       3.34774000
Si       3.34980000       1.55267000       5.53437000
Si      -5.53605000       1.55267000       3.34774000
Al      -3.34942000      -1.55729000      -5.53812000
Si       1.55517000      -3.35192000       3.75088000
Si       3.75295000       3.34731000      -1.55685000
Si      -1.55479000       3.34731000      -3.75463000
Si      -3.34942000       1.55267000      -5.53812000
Si      -3.75257000      -3.35192000      -1.55685000
Si       5.53643000      -1.55729000      -3.35149000
Si      -5.53605000      -1.55729000      -3.35149000
Si       1.55517000      -3.35192000      -3.75463000
Si       3.34980000      -1.55729000       5.53437000
Si       3.75295000       3.34731000       1.55311000
Si      -1.55479000       3.34731000       3.75088000
O       -6.92755000       2.35896000       3.43691000
O        1.70565000       4.73880000      -4.54977000
O        2.36145000       3.43648000      -2.36314000
O       -3.44789000      -3.07139000      -0.00187000
O       -4.54770000      -4.74341000       1.70359000
O       -2.36107000      -3.44110000       2.35939000
O        0.00019000      -3.07139000       3.44620000
O       -1.70527000      -4.74341000       4.54602000
O       -2.15114000      -2.15364000      -4.64637000
O       -4.74092000      -1.70777000       4.73923000
O       -4.64431000      -2.15364000       2.14946000
O       -2.36107000      -3.44110000      -2.36314000
O        4.54808000      -4.74341000      -1.70733000
O        4.64469000      -2.15364000      -2.15321000
O        2.36145000      -3.44110000      -2.36314000
O        4.74130000       1.70315000      -4.74298000
O       -5.84073000      -0.00231000       3.06721000
O       -3.06890000      -0.00231000       5.83905000
O       -4.74092000       1.70315000       4.73923000
O        3.44827000      -3.07139000      -0.00187000
O       -2.15114000       2.14902000       4.64263000
O       -3.43860000       2.35896000       6.92586000
O        4.54808000      -4.74341000       1.70359000
O        4.64469000      -2.15364000       2.14946000
O       -6.92755000       2.35896000      -3.44066000
O       -2.15114000      -2.15364000       4.64263000
O        1.70565000      -4.74341000      -4.54977000
O        3.06928000      -0.00231000      -5.84280000
O        4.74130000      -1.70777000      -4.74298000
O        2.15152000      -2.15364000      -4.64637000
O        3.43898000      -2.36357000      -6.92961000
O        0.00019000       3.06678000       3.44620000
O        1.70565000       4.73880000       4.54602000
O        2.15152000       2.14902000       4.64263000
O        2.36145000       3.43648000       2.35939000
O        0.00019000      -3.07139000      -3.44995000
O       -1.70527000      -4.74341000      -4.54977000
O        3.43898000      -2.36357000       6.92586000
O        4.54808000       4.73880000       1.70359000
O       -1.70527000       4.73880000       4.54602000
O        2.36145000      -3.44110000       2.35939000
O       -3.44789000       3.06678000      -0.00187000
O       -4.54770000       4.73880000      -1.70733000
O       -4.64431000       2.14902000      -2.15321000
O       -2.36107000       3.43648000      -2.36314000
O        5.84111000      -0.00231000       3.06721000
O        4.74130000       1.70315000       4.73923000
O        4.64469000       2.14902000       2.14946000
O        6.92793000       2.35896000       3.43691000
O       -6.92755000      -2.36357000       3.43691000
O        1.70565000      -4.74341000       4.54602000
O        2.15152000      -2.15364000       4.64263000
O        3.44827000       3.06678000      -0.00187000
O       -3.06890000      -0.00231000      -5.84280000
O       -4.74092000      -1.70777000      -4.74298000
O       -3.43860000      -2.36357000      -6.92961000
O        4.74130000      -1.70777000       4.73923000
O        6.92793000      -2.36357000       3.43691000
O        3.06928000      -0.00231000       5.83905000
O        3.43898000       2.35896000       6.92586000
O       -3.43860000      -2.36357000       6.92586000
O        0.00019000       3.06678000      -3.44995000
O        2.15152000       2.14902000      -4.64637000
O        3.43898000       2.35896000      -6.92961000
O       -4.54770000       4.73880000       1.70359000
O       -4.64431000       2.14902000       2.14946000
O       -2.36107000       3.43648000       2.35939000
O        5.84111000      -0.00231000      -3.07096000
O        4.64469000       2.14902000      -2.15321000
O        6.92793000       2.35896000      -3.44066000
O       -5.84073000      -0.00231000      -3.07096000
O       -4.74092000       1.70315000      -4.74298000
O        4.54808000       4.73880000      -1.70733000
O       -1.70527000       4.73880000      -4.54977000
O       -2.15114000       2.14902000      -4.64637000
O       -3.43860000       2.35896000      -6.92961000
O       -4.54770000      -4.74341000      -1.70733000
O       -4.64431000      -2.15364000      -2.15321000
O        6.92793000      -2.36357000      -3.44066000
O       -6.92755000      -2.36357000      -3.44066000
H       -7.77418000       2.84953000       3.49117000
H        1.79726000       5.58595000      -5.03385000
H       -5.03179000      -5.59057000       1.79520000
H       -1.79689000      -5.59057000       5.03011000
H        5.03217000      -5.59057000      -1.79895000
H       -3.49286000       2.84953000       7.77250000
H        5.03217000      -5.59057000       1.79520000
H       -7.77418000       2.84953000      -3.49492000
H        1.79726000      -5.59057000      -5.03385000
H        3.49323000      -2.85415000      -7.77625000
H        1.79726000       5.58595000       5.03011000
H       -1.79689000      -5.59057000      -5.03385000
H        3.49323000      -2.85415000       7.77250000
H        5.03217000       5.58595000       1.79520000
H       -1.79689000       5.58595000       5.03011000
H       -5.03179000       5.58595000      -1.79895000
H        7.77456000       2.84953000       3.49117000
H       -7.77418000      -2.85415000       3.49117000
H        1.79726000      -5.59057000       5.03011000
H       -3.49286000      -2.85415000      -7.77625000
H        7.77456000      -2.85415000       3.49117000
H        3.49323000       2.84953000       7.77250000
H       -3.49286000      -2.85415000       7.77250000
H        3.49323000       2.84953000      -7.77625000
H       -5.03179000       5.58595000       1.79520000
H        7.77456000       2.84953000      -3.49492000
H        5.03217000       5.58595000      -1.79895000
H       -1.79689000       5.58595000      -5.03385000
H       -3.49286000       2.84953000      -7.77625000
H       -5.03179000      -5.59057000      -1.79895000
H        7.77456000      -2.85415000      -3.49492000
H       -7.77418000      -2.85415000      -3.49492000
