109
Properties=species:S:1:pos:R:3 pbc="F F F"
Ba      -0.03934600       0.00953000       0.01189600
Si      -2.17353000       0.00142000       4.06569000
Si      -1.50666000       3.75653000      -2.93008000
Si       2.30180000       4.56285000      -0.09512000
Si      -4.56701000      -2.30597000      -0.09512000
Al      -4.51366000       0.00142000       1.96954000
Si       1.49549000      -3.75369000      -2.93008000
Si      -2.31297000      -4.56000000      -0.09512000
Si      -0.00558000       2.16937000       4.06569000
Si       1.49549000       3.75653000      -2.93008000
Si      -2.31297000       4.56285000      -0.09512000
Si      -0.00558100       4.50950000       1.96954000
Si      -0.00558000      -2.16653000       4.06569000
Si       3.74953000       1.50250000      -2.93008000
Si      -1.50666000      -3.75369000      -2.93008000
Si       2.30180000      -4.56000000      -0.09512000
Si      -0.00558000      -4.50665000       1.96954000
Si      -3.76070000      -1.49965000      -2.93008000
Al      -4.56701000       2.30881000      -0.09512000
Si      -3.76070000       1.50250000      -2.93008000
Si       4.55584000      -2.30597000      -0.09512000
Si       2.16237000       0.00142000       4.06569000
Si       3.74953000      -1.49965000      -2.93008000
Si       4.55584000       2.30881000      -0.09512000
Si       4.50249000       0.00142000       1.96954000
O       -4.75858000       1.90626000      -4.12707000
O        4.50734000      -1.54815000      -1.51260000
O        4.15208000      -1.30808000       1.10187000
O        6.05692000      -2.83462000       0.15974000
O        3.56765000       0.00142000       3.28107000
O        2.46670000       0.00142000       5.64640000
O        4.74742000      -1.90342000      -4.12707000
O       -1.31508000       4.15908000       1.10187000
O       -6.06808000       0.00142000       2.38762000
O        1.54399000      -4.51150000      -1.51260000
O       -4.16325000       1.31092000       1.10187000
O       -3.57882000       0.00142000       3.28107000
O       -2.47787000       0.00142000       5.64640000
O       -1.55516000       4.51435000      -1.51260000
O       -1.31993000      -1.31293000       3.69343000
O       -1.31993000       1.31577000       3.69343000
O       -1.91042000       4.75442000      -4.12707000
O       -0.00558000       3.22788000      -3.18494000
O       -4.75858000      -1.90342000      -4.12707000
O       -3.23205000       0.00142000      -3.18494000
O        4.15208000       1.31092000       1.10187000
O        6.05692000       2.83746000       0.15974000
O        6.05692000       0.00142000       2.38762000
O       -2.84162000       6.06392000       0.15974000
O       -3.57761000       3.57345000      -0.12089000
O       -0.00557900       6.06392000       2.38762000
O       -0.00558000      -3.57182000       3.28107000
O       -0.00558000      -2.47087000       5.64640000
O       -2.49606000       2.49190000      -2.90431000
O        1.54399000       4.51435000      -1.51260000
O        1.30392000       4.15908000       1.10187000
O        2.83045000       6.06392000       0.15974000
O        3.56644000       3.57345000      -0.12089000
O       -4.51851000      -1.54815000      -1.51260000
O       -4.16325000      -1.30808000       1.10187000
O       -6.06808000      -2.83462000       0.15974000
O       -3.57761000      -3.57060000      -0.12089000
O        1.89925000      -4.75158000      -4.12707000
O       -4.51851000       1.55100000      -1.51260000
O       -6.06808000       2.83746000       0.15974000
O        1.30877000      -1.31293000       3.69343000
O        4.50734000       1.55100000      -1.51260000
O        4.74742000       1.90626000      -4.12707000
O        3.22088000       0.00142000      -3.18494000
O       -1.91042000      -4.75158000      -4.12707000
O       -2.49606000      -2.48905000      -2.90431000
O        1.30392000      -4.15624000       1.10187000
O        2.83045000      -6.06108000       0.15974000
O        3.56644000      -3.57060000      -0.12089000
O       -0.00558000      -6.06108000       2.38762000
O       -0.00558000      -3.22504000      -3.18494000
O        2.48489000      -2.48905000      -2.90431000
O       -1.55516000      -4.51150000      -1.51260000
O       -1.31508000      -4.15624000       1.10187000
O       -2.84162000      -6.06108000       0.15974000
O       -0.00558000       3.57466000       3.28107000
O       -0.00558000       2.47371000       5.64640000
O        1.30877000       1.31577000       3.69343000
O        1.89925000       4.75442000      -4.12707000
O        2.48489000       2.49190000      -2.90431000
H       -5.36605000       2.15205000      -4.85574000
H        6.96964000      -3.15606000       0.31471000
H        2.65198000       0.00142000       6.60873000
H        5.35489000      -2.14921000      -4.85574000
H       -7.01445000       0.00142000       2.64216000
H       -2.66315000       0.00142000       6.60873000
H       -2.15621000       5.36189000      -4.85574000
H       -5.36605000      -2.14921000      -4.85574000
H        6.96964000       3.15890000       0.31471000
H        7.00328000       0.00142000       2.64216000
H       -3.16306000       6.97664000       0.31471000
H       -0.00558000       7.01029000       2.64216000
H       -0.00558000      -2.65615000       6.60873000
H        3.15190000       6.97664000       0.31471000
H       -6.98080000      -3.15606000       0.31471000
H        2.14505000      -5.35905000      -4.85574000
H       -6.98080000       3.15890000       0.31471000
H        5.35489000       2.15205000      -4.85574000
H       -2.15621000      -5.35905000      -4.85574000
H        3.15190000      -6.97380000       0.31471000
H       -0.00558000      -7.00745000       2.64216000
H       -3.16306000      -6.97380000       0.31471000
H       -0.00558000       2.65899000       6.60873000
H        2.14505000       5.36189000      -4.85574000
