145
Properties=species:S:1:pos:R:3 pbc="F F F"
Sr      -0.03565000       0.01853000      -0.02836000
Si      -3.35303000       1.55584000       5.53283000
Si       3.74934000      -3.34875000       1.55157000
Al      -3.75617000       3.35048000      -1.55839000
Si       5.53283000       1.55584000       3.34620000
Si      -5.53966000      -1.55412000       3.34620000
Si       3.34620000      -1.55412000      -5.53965000
Si       1.55156000       3.35048000       3.74935000
Si      -1.55839000      -3.34875000      -3.75617000
Si       3.74934000      -3.34875000      -1.55839000
Si       3.34620000       1.55584000      -5.53965000
Si      -3.75617000       3.35048000       1.55157000
Si       5.53283000       1.55584000      -3.35302000
Si      -5.53966000       1.55584000      -3.35302000
Si      -3.35303000      -1.55412000       5.53283000
Si       1.55156000       3.35048000      -3.75617000
Si      -3.75617000      -3.34875000       1.55157000
Si      -1.55839000      -3.34875000       3.74935000
Si       5.53283000      -1.55412000       3.34620000
Si       3.34620000       1.55584000       5.53283000
Si      -5.53966000       1.55584000       3.34620000
Al      -3.35303000      -1.55412000      -5.53965000
Si       1.55156000      -3.34875000       3.74935000
Si       3.74934000       3.35048000      -1.55839000
Si      -1.55839000       3.35048000      -3.75617000
Si      -3.35303000       1.55584000      -5.53965000
Si      -3.75617000      -3.34875000      -1.55839000
Si       5.53283000      -1.55412000      -3.35302000
Si      -5.53966000      -1.55412000      -3.35302000
Si       1.55156000      -3.34875000      -3.75617000
Si       3.34620000      -1.55412000       5.53283000
Si       3.74934000       3.35048000       1.55157000
Si      -1.55839000       3.35048000       3.74935000
O       -6.93115000       2.36213000       3.43538000
O        1.70205000       4.74197000      -4.55130000
O        2.35785000       3.43965000      -2.36467000
O       -3.45149000      -3.06822000      -0.00341000
O       -4.55131000      -4.74024000       1.70205000
O       -2.36468000      -3.43793000       2.35785000
O       -0.00341000      -3.06822000       3.44467000
O       -1.70887000      -4.74024000       4.54448000
O       -2.15475000      -2.15047000      -4.64791000
O       -4.74452000      -1.70460000       4.73770000
O       -4.64791000      -2.15047000       2.14792000
O       -2.36468000      -3.43793000      -2.36467000
O        4.54448000      -4.74024000      -1.70887000
O        4.64109000      -2.15047000      -2.15474000
O        2.35785000      -3.43793000      -2.36467000
O        4.73769000       1.70632000      -4.74452000
O       -5.84434000       0.00086000       3.06568000
O       -3.07250000       0.00086000       5.83751000
O       -4.74452000       1.70632000       4.73770000
O        3.44466000      -3.06822000      -0.00341000
O       -2.15475000       2.15219000       4.64109000
O       -3.44220000       2.36213000       6.92433000
O        4.54448000      -4.74024000       1.70205000
O        4.64109000      -2.15047000       2.14792000
O       -6.93115000       2.36213000      -3.44220000
O       -2.15475000      -2.15047000       4.64109000
O        1.70205000      -4.74024000      -4.55130000
O        3.06567000       0.00086000      -5.84433000
O        4.73769000      -1.70460000      -4.74452000
O        2.14792000      -2.15047000      -4.64791000
O        3.43537000      -2.36040000      -6.93115000
O       -0.00341000       3.06995000       3.44467000
O        1.70205000       4.74197000       4.54448000
O        2.14792000       2.15219000       4.64109000
O        2.35785000       3.43965000       2.35785000
O       -0.00341000      -3.06822000      -3.45149000
O       -1.70887000      -4.74024000      -4.55130000
O        3.43537000      -2.36040000       6.92433000
O        4.54448000       4.74197000       1.70205000
O       -1.70887000       4.74197000       4.54448000
O        2.35785000      -3.43793000       2.35785000
O       -3.45149000       3.06995000      -0.00341000
O       -4.55131000       4.74197000      -1.70887000
O       -4.64791000       2.15219000      -2.15474000
O       -2.36468000       3.43965000      -2.36467000
O        5.83751000       0.00086000       3.06568000
O        4.73769000       1.70632000       4.73770000
O        4.64109000       2.15219000       2.14792000
O        6.92432000       2.36213000       3.43538000
O       -6.93115000      -2.36040000       3.43538000
O        1.70205000      -4.74024000       4.54448000
O        2.14792000      -2.15047000       4.64109000
O        3.44466000       3.06995000      -0.00341000
O       -3.07250000       0.00086000      -5.84433000
O       -4.74452000      -1.70460000      -4.74452000
O       -3.44220000      -2.36040000      -6.93115000
O        4.73769000      -1.70460000       4.73770000
O        6.92432000      -2.36040000       3.43538000
O        3.06567000       0.00086000       5.83751000
O        3.43537000       2.36213000       6.92433000
O       -3.44220000      -2.36040000       6.92433000
O       -0.00341000       3.06995000      -3.45149000
O        2.14792000       2.15219000      -4.64791000
O        3.43537000       2.36213000      -6.93115000
O       -4.55131000       4.74197000       1.70205000
O       -4.64791000       2.15219000       2.14792000
O       -2.36468000       3.43965000       2.35785000
O        5.83751000       0.00086000      -3.07250000
O        4.64109000       2.15219000      -2.15474000
O        6.92432000       2.36213000      -3.44220000
O       -5.84434000       0.00086000      -3.07250000
O       -4.74452000       1.70632000      -4.74452000
O        4.54448000       4.74197000      -1.70887000
O       -1.70887000       4.74197000      -4.55130000
O       -2.15475000       2.15219000      -4.64791000
O       -3.44220000       2.36213000      -6.93115000
O       -4.55131000      -4.74024000      -1.70887000
O       -4.64791000      -2.15047000      -2.15474000
O        6.92432000      -2.36040000      -3.44220000
O       -6.93115000      -2.36040000      -3.44220000
H       -7.77779000       2.85270000       3.48964000
H        1.79366000       5.58912000      -5.03539000
H       -5.03540000      -5.58740000       1.79367000
H       -1.80049000      -5.58740000       5.02857000
H        5.02857000      -5.58740000      -1.80048000
H       -3.49646000       2.85270000       7.77096000
H        5.02857000      -5.58740000       1.79367000
H       -7.77779000       2.85270000      -3.49645000
H        1.79366000      -5.58740000      -5.03539000
H        3.48963000      -2.85098000      -7.77778000
H        1.79366000       5.58912000       5.02857000
H       -1.80049000      -5.58740000      -5.03539000
H        3.48963000      -2.85098000       7.77096000
H        5.02857000       5.58912000       1.79367000
H       -1.80049000       5.58912000       5.02857000
H       -5.03540000       5.58912000      -1.80048000
H        7.77096000       2.85270000       3.48964000
H       -7.77779000      -2.85098000       3.48964000
H        1.79366000      -5.58740000       5.02857000
H       -3.49646000      -2.85098000      -7.77778000
H        7.77096000      -2.85098000       3.48964000
H        3.48963000       2.85270000       7.77096000
H       -3.49646000      -2.85098000       7.77096000
H        3.48963000       2.85270000      -7.77778000
H       -5.03540000       5.58912000       1.79367000
H        7.77096000       2.85270000      -3.49645000
H        5.02857000       5.58912000      -1.80048000
H       -1.80049000       5.58912000      -5.03539000
H       -3.49646000       2.85270000      -7.77778000
H       -5.03540000      -5.58740000      -1.80048000
H        7.77096000      -2.85098000      -3.49645000
H       -7.77779000      -2.85098000      -3.49645000
