109
Properties=species:S:1:pos:R:3 pbc="F F F"
Sr      -0.03831600      -0.00683800      -0.00278500
Si      -2.17318000      -0.00095000       4.06398000
Si      -1.50631000       3.75416000      -2.93180000
Si       2.30216000       4.56047000      -0.09683000
Si      -4.56666000      -2.30834000      -0.09683000
Al      -4.51331000      -0.00095000       1.96782000
Si       1.49584000      -3.75606000      -2.93180000
Si      -2.31262000      -4.56238000      -0.09683000
Si      -0.00523000       2.16700000       4.06398000
Si       1.49584000       3.75416000      -2.93180000
Si      -2.31262000       4.56047000      -0.09683000
Si      -0.00522900       4.50712000       1.96782000
Si      -0.00523000      -2.16890000       4.06398000
Si       3.74988000       1.50012000      -2.93180000
Si      -1.50631000      -3.75606000      -2.93180000
Si       2.30216000      -4.56238000      -0.09683000
Si      -0.00523000      -4.50903000       1.96782000
Al      -3.76034000      -1.50203000      -2.93180000
Si      -4.56666000       2.30644000      -0.09683000
Si      -3.76034000       1.50012000      -2.93180000
Si       4.55619000      -2.30834000      -0.09683000
Si       2.16272000      -0.00095000       4.06398000
Si       3.74988000      -1.50203000      -2.93180000
Si       4.55619000       2.30644000      -0.09683000
Si       4.50284000      -0.00095000       1.96782000
O       -4.75823000       1.90389000      -4.12878000
O        4.50769000      -1.55053000      -1.51431000
O        4.15243000      -1.31045000       1.10015000
O        6.05727000      -2.83699000       0.15803000
O        3.56801000      -0.00095000       3.27935000
O        2.46706000      -0.00095000       5.64469000
O        4.74777000      -1.90579000      -4.12878000
O       -1.31473000       4.15671000       1.10015000
O       -6.06773000      -0.00095000       2.38591000
O        1.54434000      -4.51388000      -1.51431000
O       -4.16289000       1.30855000       1.10015000
O       -3.57847000      -0.00095000       3.27935000
O       -2.47752000      -0.00095000       5.64469000
O       -1.55481000       4.51197000      -1.51431000
O       -1.31958000      -1.31530000       3.69171000
O       -1.31958000       1.31340000       3.69171000
O       -1.91007000       4.75205000      -4.12878000
O       -0.00523000       3.22551000      -3.18666000
O       -4.75823000      -1.90579000      -4.12878000
O       -3.23169000      -0.00095000      -3.18666000
O        4.15243000       1.30855000       1.10015000
O        6.05727000       2.83509000       0.15803000
O        6.05727000      -0.00095000       2.38591000
O       -2.84127000       6.06155000       0.15803000
O       -3.57726000       3.57107000      -0.12260000
O       -0.00523100       6.06155000       2.38591000
O       -0.00523000      -3.57419000       3.27935000
O       -0.00523000      -2.47324000       5.64469000
O       -2.49571000       2.48952000      -2.90602000
O        1.54434000       4.51197000      -1.51431000
O        1.30427000       4.15671000       1.10015000
O        2.83081000       6.06155000       0.15803000
O        3.56679000       3.57107000      -0.12260000
O       -4.51816000      -1.55053000      -1.51431000
O       -4.16289000      -1.31045000       1.10015000
O       -6.06773000      -2.83699000       0.15803000
O       -3.57726000      -3.57298000      -0.12260000
O        1.89961000      -4.75395000      -4.12878000
O       -4.51816000       1.54862000      -1.51431000
O       -6.06773000       2.83509000       0.15803000
O        1.30912000      -1.31530000       3.69171000
O        4.50769000       1.54862000      -1.51431000
O        4.74777000       1.90389000      -4.12878000
O        3.22123000      -0.00095000      -3.18666000
O       -1.91007000      -4.75395000      -4.12878000
O       -2.49571000      -2.49143000      -2.90602000
O        1.30427000      -4.15861000       1.10015000
O        2.83081000      -6.06345000       0.15803000
O        3.56679000      -3.57298000      -0.12260000
O       -0.00523000      -6.06345000       2.38591000
O       -0.00523000      -3.22741000      -3.18666000
O        2.48524000      -2.49143000      -2.90602000
O       -1.55481000      -4.51388000      -1.51431000
O       -1.31473000      -4.15861000       1.10015000
O       -2.84127000      -6.06345000       0.15803000
O       -0.00523000       3.57229000       3.27935000
O       -0.00523000       2.47134000       5.64469000
O        1.30912000       1.31340000       3.69171000
O        1.89961000       4.75205000      -4.12878000
O        2.48524000       2.48952000      -2.90602000
H       -5.36570000       2.14968000      -4.85745000
H        6.96999000      -3.15843000       0.31300000
H        2.65234000      -0.00095000       6.60701000
H        5.35524000      -2.15158000      -4.85745000
H       -7.01410000      -0.00095000       2.64045000
H       -2.66280000      -0.00095000       6.60701000
H       -2.15586000       5.35952000      -4.85745000
H       -5.36570000      -2.15158000      -4.85745000
H        6.96999000       3.15653000       0.31300000
H        7.00364000      -0.00095000       2.64045000
H       -3.16271000       6.97427000       0.31300000
H       -0.00523000       7.00792000       2.64045000
H       -0.00523000      -2.65852000       6.60701000
H        3.15225000       6.97427000       0.31300000
H       -6.98045000      -3.15843000       0.31300000
H        2.14540000      -5.36142000      -4.85745000
H       -6.98045000       3.15653000       0.31300000
H        5.35524000       2.14968000      -4.85745000
H       -2.15586000      -5.36142000      -4.85745000
H        3.15225000      -6.97617000       0.31300000
H       -0.00523000      -7.00982000       2.64045000
H       -3.16271000      -6.97617000       0.31300000
H       -0.00523000       2.65662000       6.60701000
H        2.14540000       5.35952000      -4.85745000
