109
Properties=species:S:1:pos:R:3 pbc="F F F"
Sr      -0.00552600       0.00428000      -0.03049700
Si      -2.16846000       0.00051000       4.06267000
Si      -1.50159000       3.75562000      -2.93310000
Si       2.30688000       4.56194000      -0.09814000
Si      -4.56194000      -2.30688000      -0.09814000
Si      -4.50859000       0.00050900       1.96652000
Al       1.50056000      -3.75460000      -2.93310000
Si      -2.30790000      -4.56091000      -0.09814000
Si      -0.00051000       2.16846000       4.06267000
Si       1.50056000       3.75562000      -2.93310000
Al      -2.30790000       4.56194000      -0.09814000
Si      -0.00051000       4.50859000       1.96652000
Si      -0.00051000      -2.16744000       4.06267000
Si       3.75460000       1.50159000      -2.93310000
Si      -1.50159000      -3.75460000      -2.93310000
Si       2.30688000      -4.56091000      -0.09814000
Si      -0.00051000      -4.50756000       1.96652000
Si      -3.75562000      -1.50056000      -2.93310000
Si      -4.56194000       2.30790000      -0.09814000
Si      -3.75562000       1.50159000      -2.93310000
Si       4.56091000      -2.30688000      -0.09814000
Si       2.16744000       0.00051000       4.06267000
Si       3.75460000      -1.50056000      -2.93310000
Si       4.56091000       2.30790000      -0.09814000
Si       4.50756000       0.00051000       1.96652000
O       -4.75351000       1.90535000      -4.13009000
O        4.51241000      -1.54906000      -1.51562000
O        4.15715000      -1.30899000       1.09885000
O        6.06199000      -2.83553000       0.15672000
O        3.57273000       0.00051000       3.27805000
O        2.47178000       0.00051000       5.64338000
O        4.75249000      -1.90433000      -4.13009000
O       -1.31001000       4.15817000       1.09885000
O       -6.06301000       0.00051100       2.38460000
O        1.54906000      -4.51241000      -1.51562000
O       -4.15817000       1.31001000       1.09885000
O       -3.57375000       0.00051000       3.27805000
O       -2.47280000       0.00051000       5.64338000
O       -1.55009000       4.51344000      -1.51562000
O       -1.31486000      -1.31384000       3.69040000
O       -1.31486000       1.31486000       3.69040000
O       -1.90535000       4.75351000      -4.13009000
O       -0.00051000       3.22697000      -3.18796000
O       -4.75351000      -1.90433000      -4.13009000
O       -3.22697000       0.00051000      -3.18796000
O        4.15715000       1.31001000       1.09885000
O        6.06199000       2.83655000       0.15672000
O        6.06199000       0.00051000       2.38460000
O       -2.83655000       6.06301000       0.15672000
O       -3.57254000       3.57254000      -0.12391000
O       -0.00051000       6.06301000       2.38460000
O       -0.00051000      -3.57273000       3.27805000
O       -0.00051000      -2.47178000       5.64338000
O       -2.49099000       2.49099000      -2.90733000
O        1.54906000       4.51344000      -1.51562000
O        1.30899000       4.15817000       1.09885000
O        2.83553000       6.06301000       0.15672000
O        3.57151000       3.57254000      -0.12391000
O       -4.51344000      -1.54906000      -1.51562000
O       -4.15817000      -1.30899000       1.09885000
O       -6.06301000      -2.83553000       0.15672000
O       -3.57254000      -3.57151000      -0.12391000
O        1.90433000      -4.75249000      -4.13009000
O       -4.51344000       1.55009000      -1.51562000
O       -6.06301000       2.83655000       0.15672000
O        1.31384000      -1.31384000       3.69040000
O        4.51241000       1.55009000      -1.51562000
O        4.75249000       1.90535000      -4.13009000
O        3.22595000       0.00051000      -3.18796000
O       -1.90535000      -4.75249000      -4.13009000
O       -2.49099000      -2.48996000      -2.90733000
O        1.30899000      -4.15715000       1.09885000
O        2.83553000      -6.06199000       0.15672000
O        3.57151000      -3.57151000      -0.12391000
O       -0.00051000      -6.06199000       2.38460000
O       -0.00051000      -3.22595000      -3.18796000
O        2.48996000      -2.48996000      -2.90733000
O       -1.55009000      -4.51241000      -1.51562000
O       -1.31001000      -4.15715000       1.09885000
O       -2.83655000      -6.06199000       0.15672000
O       -0.00051000       3.57375000       3.27805000
O       -0.00051000       2.47280000       5.64338000
O        1.31384000       1.31486000       3.69040000
O        1.90433000       4.75351000      -4.13009000
O        2.48996000       2.49099000      -2.90733000
H       -5.36098000       2.15114000      -4.85876000
H        6.97471000      -3.15697000       0.31169000
H        2.65706000       0.00051000       6.60571000
H        5.35996000      -2.15012000      -4.85876000
H       -7.00938000       0.00051000       2.63914000
H       -2.65808000       0.00051000       6.60571000
H       -2.15114000       5.36098000      -4.85876000
H       -5.36098000      -2.15012000      -4.85876000
H        6.97471000       3.15799000       0.31169000
H        7.00836000       0.00051000       2.63914000
H       -3.15799000       6.97573000       0.31169000
H       -0.00051000       7.00938000       2.63914000
H       -0.00051000      -2.65706000       6.60571000
H        3.15697000       6.97573000       0.31169000
H       -6.97573000      -3.15697000       0.31169000
H        2.15012000      -5.35996000      -4.85876000
H       -6.97573000       3.15799000       0.31169000
H        5.35996000       2.15114000      -4.85876000
H       -2.15114000      -5.35996000      -4.85876000
H        3.15697000      -6.97471000       0.31169000
H       -0.00051000      -7.00836000       2.63914000
H       -3.15799000      -6.97471000       0.31169000
H       -0.00051000       2.65808000       6.60571000
H        2.15012000       5.36098000      -4.85876000
