109
Properties=species:S:1:pos:R:3 pbc="F F F"
Sr       0.01243200      -0.01201800      -0.03265100
Si      -2.16652000      -0.00143000       4.06088000
Si      -1.49965000       3.75368000      -2.93490000
Si       2.30881000       4.56000000      -0.09993000
Si      -4.56000000      -2.30882000      -0.09993000
Si      -4.50665000      -0.00142400       1.96472000
Si       1.50250000      -3.75654000      -2.93490000
Si      -2.30596000      -4.56285000      -0.09993000
Si       0.00143000       2.16652000       4.06088000
Si       1.50250000       3.75368000      -2.93490000
Si      -2.30596000       4.56000000      -0.09993000
Si       0.00142700       4.50665000       1.96472000
Si       0.00143000      -2.16938000       4.06088000
Al       3.75654000       1.49965000      -2.93490000
Al      -1.49965000      -3.75654000      -2.93490000
Si       2.30881000      -4.56285000      -0.09993000
Si       0.00143000      -4.50950000       1.96472000
Si      -3.75369000      -1.50250000      -2.93490000
Si      -4.56000000       2.30596000      -0.09993000
Si      -3.75369000       1.49965000      -2.93490000
Si       4.56285000      -2.30882000      -0.09993000
Si       2.16938000      -0.00143000       4.06088000
Si       3.75654000      -1.50250000      -2.93490000
Si       4.56285000       2.30596000      -0.09993000
Si       4.50950000      -0.00143000       1.96472000
O       -4.75157000       1.90341000      -4.13188000
O        4.51435000      -1.55100000      -1.51742000
O        4.15909000      -1.31093000       1.09705000
O        6.06393000      -2.83746000       0.15493000
O        3.57466000      -0.00143000       3.27625000
O        2.47371000      -0.00143000       5.64158000
O        4.75443000      -1.90626000      -4.13188000
O       -1.30807000       4.15623000       1.09705000
O       -6.06107000      -0.00143500       2.38281000
O        1.55100000      -4.51435000      -1.51742000
O       -4.15624000       1.30807000       1.09705000
O       -3.57181000      -0.00143100       3.27625000
O       -2.47086000      -0.00143000       5.64158000
O       -1.54815000       4.51150000      -1.51742000
O       -1.31292000      -1.31578000       3.68861000
O       -1.31292000       1.31292000       3.68861000
O       -1.90341000       4.75157000      -4.13188000
O        0.00143000       3.22504000      -3.18976000
O       -4.75157000      -1.90626000      -4.13188000
O       -3.22504000      -0.00143000      -3.18976000
O        4.15909000       1.30807000       1.09705000
O        6.06393000       2.83461000       0.15493000
O        6.06393000      -0.00143000       2.38281000
O       -2.83461000       6.06107000       0.15493000
O       -3.57060000       3.57060000      -0.12571000
O        0.00143300       6.06107000       2.38281000
O        0.00143100      -3.57467000       3.27625000
O        0.00143000      -2.47372000       5.64158000
O       -2.48905000       2.48905000      -2.90913000
O        1.55100000       4.51150000      -1.51742000
O        1.31093000       4.15623000       1.09705000
O        2.83746000       6.06107000       0.15493000
O        3.57345000       3.57060000      -0.12571000
O       -4.51150000      -1.55100000      -1.51742000
O       -4.15624000      -1.31093000       1.09705000
O       -6.06107000      -2.83746000       0.15493000
O       -3.57060000      -3.57345000      -0.12571000
O        1.90626000      -4.75443000      -4.13188000
O       -4.51150000       1.54815000      -1.51742000
O       -6.06107000       2.83461000       0.15493000
O        1.31578000      -1.31578000       3.68861000
O        4.51435000       1.54815000      -1.51742000
O        4.75443000       1.90341000      -4.13188000
O        3.22789000      -0.00143000      -3.18976000
O       -1.90341000      -4.75443000      -4.13188000
O       -2.48905000      -2.49190000      -2.90913000
O        1.31093000      -4.15909000       1.09705000
O        2.83746000      -6.06393000       0.15493000
O        3.57345000      -3.57345000      -0.12571000
O        0.00143000      -6.06393000       2.38281000
O        0.00143000      -3.22789000      -3.18976000
O        2.49190000      -2.49190000      -2.90913000
O       -1.54815000      -4.51435000      -1.51742000
O       -1.30807000      -4.15909000       1.09705000
O       -2.83461000      -6.06393000       0.15493000
O        0.00143000       3.57181000       3.27625000
O        0.00143000       2.47086000       5.64158000
O        1.31578000       1.31292000       3.68861000
O        1.90626000       4.75157000      -4.13188000
O        2.49190000       2.48905000      -2.90913000
H       -5.35904000       2.14920000      -4.86056000
H        6.97665000      -3.15891000       0.30989000
H        2.65899000      -0.00143000       6.60391000
H        5.36190000      -2.15206000      -4.86056000
H       -7.00744000      -0.00142900       2.63735000
H       -2.65614000      -0.00143000       6.60391000
H       -2.14920000       5.35904000      -4.86056000
H       -5.35904000      -2.15206000      -4.86056000
H        6.97665000       3.15605000       0.30989000
H        7.01029000      -0.00143000       2.63735000
H       -3.15605000       6.97379000       0.30989000
H        0.00142900       7.00744000       2.63735000
H        0.00143000      -2.65899000       6.60391000
H        3.15891000       6.97379000       0.30989000
H       -6.97379000      -3.15891000       0.30989000
H        2.15206000      -5.36190000      -4.86056000
H       -6.97379000       3.15605000       0.30989000
H        5.36190000       2.14920000      -4.86056000
H       -2.14920000      -5.36190000      -4.86056000
H        3.15891000      -6.97665000       0.30989000
H        0.00143000      -7.01029000       2.63735000
H       -3.15605000      -6.97665000       0.30989000
H        0.00143000       2.65614000       6.60391000
H        2.15206000       5.35904000      -4.86056000
