109
Properties=species:S:1:pos:R:3 pbc="F F F"
Sr      -0.03880500       0.00949200       0.01056800
Si      -2.17369000       0.00146000       4.06577000
Si      -1.50682000       3.75657000      -2.93000000
Si       2.30165000       4.56289000      -0.09504000
Si      -4.56717000      -2.30593000      -0.09504000
Al      -4.51382000       0.00146000       1.96962000
Si       1.49533000      -3.75365000      -2.93000000
Si      -2.31313000      -4.55996000      -0.09504000
Si      -0.00574000       2.16941000       4.06577000
Si       1.49533000       3.75657000      -2.93000000
Si      -2.31313000       4.56289000      -0.09504000
Si      -0.00574100       4.50954000       1.96962000
Si      -0.00574000      -2.16649000       4.06577000
Si       3.74937000       1.50254000      -2.93000000
Si      -1.50682000      -3.75365000      -2.93000000
Si       2.30165000      -4.55996000      -0.09504000
Si      -0.00574000      -4.50661000       1.96962000
Si      -3.76085000      -1.49961000      -2.93000000
Al      -4.56717000       2.30885000      -0.09504000
Si      -3.76085000       1.50254000      -2.93000000
Si       4.55568000      -2.30593000      -0.09504000
Si       2.16221000       0.00146000       4.06577000
Si       3.74937000      -1.49961000      -2.93000000
Si       4.55568000       2.30885000      -0.09504000
Si       4.50233000       0.00146000       1.96962000
O       -4.75874000       1.90630000      -4.12699000
O        4.50718000      -1.54811000      -1.51252000
O        4.15192000      -1.30804000       1.10195000
O        6.05676000      -2.83458000       0.15982000
O        3.56750000       0.00146000       3.28115000
O        2.46655000       0.00146000       5.64648000
O        4.74726000      -1.90338000      -4.12699000
O       -1.31524000       4.15912000       1.10195000
O       -6.06824000       0.00146000       2.38770000
O        1.54383000      -4.51146000      -1.51252000
O       -4.16340000       1.31096000       1.10195000
O       -3.57898000       0.00146000       3.28115000
O       -2.47803000       0.00146000       5.64648000
O       -1.55532000       4.51439000      -1.51252000
O       -1.32009000      -1.31289000       3.69351000
O       -1.32009000       1.31581000       3.69351000
O       -1.91058000       4.75446000      -4.12699000
O       -0.00574000       3.22792000      -3.18486000
O       -4.75874000      -1.90338000      -4.12699000
O       -3.23220000       0.00146000      -3.18486000
O        4.15192000       1.31096000       1.10195000
O        6.05676000       2.83750000       0.15982000
O        6.05676000       0.00146000       2.38770000
O       -2.84178000       6.06396000       0.15982000
O       -3.57777000       3.57349000      -0.12081000
O       -0.00573900       6.06396000       2.38770000
O       -0.00574000      -3.57178000       3.28115000
O       -0.00574000      -2.47083000       5.64648000
O       -2.49622000       2.49194000      -2.90423000
O        1.54383000       4.51439000      -1.51252000
O        1.30376000       4.15912000       1.10195000
O        2.83030000       6.06396000       0.15982000
O        3.56628000       3.57349000      -0.12081000
O       -4.51867000      -1.54811000      -1.51252000
O       -4.16340000      -1.30804000       1.10195000
O       -6.06824000      -2.83458000       0.15982000
O       -3.57777000      -3.57056000      -0.12081000
O        1.89910000      -4.75154000      -4.12699000
O       -4.51867000       1.55104000      -1.51252000
O       -6.06824000       2.83750000       0.15982000
O        1.30861000      -1.31289000       3.69351000
O        4.50718000       1.55104000      -1.51252000
O        4.74726000       1.90630000      -4.12699000
O        3.22072000       0.00146000      -3.18486000
O       -1.91058000      -4.75154000      -4.12699000
O       -2.49622000      -2.48901000      -2.90423000
O        1.30376000      -4.15620000       1.10195000
O        2.83030000      -6.06104000       0.15982000
O        3.56628000      -3.57056000      -0.12081000
O       -0.00574000      -6.06104000       2.38770000
O       -0.00574000      -3.22500000      -3.18486000
O        2.48473000      -2.48901000      -2.90423000
O       -1.55532000      -4.51146000      -1.51252000
O       -1.31524000      -4.15620000       1.10195000
O       -2.84178000      -6.06104000       0.15982000
O       -0.00574000       3.57470000       3.28115000
O       -0.00574000       2.47375000       5.64648000
O        1.30861000       1.31581000       3.69351000
O        1.89910000       4.75446000      -4.12699000
O        2.48473000       2.49194000      -2.90423000
H       -5.36621000       2.15209000      -4.85566000
H        6.96948000      -3.15602000       0.31479000
H        2.65182000       0.00146000       6.60881000
H        5.35473000      -2.14917000      -4.85566000
H       -7.01461000       0.00146000       2.64224000
H       -2.66331000       0.00146000       6.60881000
H       -2.15637000       5.36193000      -4.85566000
H       -5.36621000      -2.14917000      -4.85566000
H        6.96948000       3.15894000       0.31479000
H        7.00312000       0.00146000       2.64224000
H       -3.16322000       6.97668000       0.31479000
H       -0.00574000       7.01033000       2.64224000
H       -0.00574000      -2.65611000       6.60881000
H        3.15174000       6.97668000       0.31479000
H       -6.98096000      -3.15602000       0.31479000
H        2.14489000      -5.35901000      -4.85566000
H       -6.98096000       3.15894000       0.31479000
H        5.35473000       2.15209000      -4.85566000
H       -2.15637000      -5.35901000      -4.85566000
H        3.15174000      -6.97376000       0.31479000
H       -0.00574000      -7.00741000       2.64224000
H       -3.16322000      -6.97376000       0.31479000
H       -0.00574000       2.65903000       6.60881000
H        2.14489000       5.36193000      -4.85566000
