109
Properties=species:S:1:pos:R:3 pbc="F F F"
Ba      -0.02016600      -0.03197500       0.01269700
Si      -2.17076000      -0.00420000       4.06569000
Si      -1.50388000       3.75092000      -2.93008000
Si       2.30458000       4.55723000      -0.09512000
Al      -4.56423000      -2.31158000      -0.09512000
Si      -4.51088000      -0.00420000       1.96954000
Si       1.49827000      -3.75931000      -2.93008000
Si      -2.31020000      -4.56562000      -0.09512000
Si      -0.00281000       2.16375000       4.06569000
Si       1.49827000       3.75092000      -2.93008000
Si      -2.31020000       4.55723000      -0.09512000
Si      -0.00281100       4.50388000       1.96954000
Si      -0.00281000      -2.17215000       4.06569000
Si       3.75230000       1.49688000      -2.93008000
Si      -1.50388000      -3.75931000      -2.93008000
Si       2.30458000      -4.56562000      -0.09512000
Al      -0.00281000      -4.51227000       1.96954000
Si      -3.75792000      -1.50527000      -2.93008000
Si      -4.56423000       2.30319000      -0.09512000
Si      -3.75792000       1.49688000      -2.93008000
Si       4.55862000      -2.31158000      -0.09512000
Si       2.16514000      -0.00420000       4.06569000
Si       3.75230000      -1.50527000      -2.93008000
Si       4.55862000       2.30319000      -0.09512000
Si       4.50527000      -0.00420000       1.96954000
O       -4.75581000       1.90064000      -4.12707000
O        4.51012000      -1.55377000      -1.51260000
O        4.15485000      -1.31370000       1.10187000
O        6.05969000      -2.84023000       0.15974000
O        3.57043000      -0.00420000       3.28107000
O        2.46948000      -0.00420000       5.64640000
O        4.75019000      -1.90903000      -4.12707000
O       -1.31231000       4.15347000       1.10187000
O       -6.06531000      -0.00420000       2.38762000
O        1.54677000      -4.51712000      -1.51260000
O       -4.16047000       1.30530000       1.10187000
O       -3.57605000      -0.00420000       3.28107000
O       -2.47510000      -0.00420000       5.64640000
O       -1.55238000       4.50873000      -1.51260000
O       -1.31716000      -1.31855000       3.69343000
O       -1.31716000       1.31015000       3.69343000
O       -1.90765000       4.74880000      -4.12707000
O       -0.00281000       3.22227000      -3.18494000
O       -4.75581000      -1.90903000      -4.12707000
O       -3.22927000      -0.00420000      -3.18494000
O        4.15485000       1.30530000       1.10187000
O        6.05969000       2.83184000       0.15974000
O        6.05969000      -0.00420000       2.38762000
O       -2.83885000       6.05830000       0.15974000
O       -3.57483000       3.56783000      -0.12089000
O       -0.00280900       6.05830000       2.38762000
O       -0.00281000      -3.57743000       3.28107000
O       -0.00281000      -2.47648000       5.64640000
O       -2.49328000       2.48628000      -2.90431000
O        1.54677000       4.50873000      -1.51260000
O        1.30669000       4.15347000       1.10187000
O        2.83323000       6.05830000       0.15974000
O        3.56922000       3.56783000      -0.12089000
O       -4.51573000      -1.55377000      -1.51260000
O       -4.16047000      -1.31370000       1.10187000
O       -6.06531000      -2.84023000       0.15974000
O       -3.57483000      -3.57622000      -0.12089000
O        1.90203000      -4.75720000      -4.12707000
O       -4.51573000       1.54538000      -1.51260000
O       -6.06531000       2.83184000       0.15974000
O        1.31154000      -1.31855000       3.69343000
O        4.51012000       1.54538000      -1.51260000
O        4.75019000       1.90064000      -4.12707000
O        3.22365000      -0.00420000      -3.18494000
O       -1.90765000      -4.75720000      -4.12707000
O       -2.49328000      -2.49467000      -2.90431000
O        1.30669000      -4.16186000       1.10187000
O        2.83323000      -6.06670000       0.15974000
O        3.56922000      -3.57622000      -0.12089000
O       -0.00281000      -6.06670000       2.38762000
O       -0.00281000      -3.23066000      -3.18494000
O        2.48767000      -2.49467000      -2.90431000
O       -1.55238000      -4.51712000      -1.51260000
O       -1.31231000      -4.16186000       1.10187000
O       -2.83885000      -6.06670000       0.15974000
O       -0.00281000       3.56904000       3.28107000
O       -0.00281000       2.46809000       5.64640000
O        1.31154000       1.31015000       3.69343000
O        1.90203000       4.74880000      -4.12707000
O        2.48767000       2.48628000      -2.90431000
H       -5.36328000       2.14644000      -4.85574000
H        6.97241000      -3.16168000       0.31471000
H        2.65476000      -0.00420000       6.60873000
H        5.35766000      -2.15483000      -4.85574000
H       -7.01168000      -0.00420000       2.64216000
H       -2.66038000      -0.00420000       6.60873000
H       -2.15344000       5.35628000      -4.85574000
H       -5.36328000      -2.15483000      -4.85574000
H        6.97241000       3.15328000       0.31471000
H        7.00606000      -0.00420000       2.64216000
H       -3.16029000       6.97103000       0.31471000
H       -0.00281000       7.00467000       2.64216000
H       -0.00281000      -2.66176000       6.60873000
H        3.15467000       6.97103000       0.31471000
H       -6.97803000      -3.16168000       0.31471000
H        2.14782000      -5.36467000      -4.85574000
H       -6.97803000       3.15328000       0.31471000
H        5.35766000       2.14644000      -4.85574000
H       -2.15344000      -5.36467000      -4.85574000
H        3.15467000      -6.97942000       0.31471000
H       -0.00281000      -7.01306000       2.64216000
H       -3.16029000      -6.97942000       0.31471000
H       -0.00281000       2.65337000       6.60873000
H        2.14782000       5.35628000      -4.85574000
