145
Properties=species:S:1:pos:R:3 pbc="F F F"
Sr      -0.00139000       0.04583800      -0.01857900
Si      -3.34961000       1.55820000       5.53475000
Si       3.75276000      -3.34639000       1.55348000
Al      -3.75276000       3.35283000      -1.55647000
Si       5.53624000       1.55820000       3.34812000
Si      -5.53624000      -1.55176000       3.34812000
Si       3.34961000      -1.55176000      -5.53774000
Si       1.55498000       3.35283000       3.75126000
Si      -1.55498000      -3.34639000      -3.75425000
Si       3.75276000      -3.34639000      -1.55647000
Si       3.34961000       1.55820000      -5.53774000
Si      -3.75276000       3.35283000       1.55348000
Si       5.53624000       1.55820000      -3.35111000
Si      -5.53624000       1.55820000      -3.35111000
Si      -3.34961000      -1.55176000       5.53475000
Si       1.55498000       3.35283000      -3.75425000
Si      -3.75276000      -3.34639000       1.55348000
Si      -1.55498000      -3.34639000       3.75126000
Si       5.53624000      -1.55176000       3.34812000
Si       3.34961000       1.55820000       5.53475000
Si      -5.53624000       1.55820000       3.34812000
Si      -3.34961000      -1.55176000      -5.53774000
Si       1.55498000      -3.34639000       3.75126000
Al       3.75276000       3.35283000      -1.55647000
Si      -1.55498000       3.35283000      -3.75425000
Si      -3.34961000       1.55820000      -5.53774000
Si      -3.75276000      -3.34639000      -1.55647000
Si       5.53624000      -1.55176000      -3.35111000
Si      -5.53624000      -1.55176000      -3.35111000
Si       1.55498000      -3.34639000      -3.75425000
Si       3.34961000      -1.55176000       5.53475000
Si       3.75276000       3.35283000       1.55348000
Si      -1.55498000       3.35283000       3.75126000
O       -6.92774000       2.36448000       3.43729000
O        1.70546000       4.74433000      -4.54939000
O        2.36126000       3.44201000      -2.36276000
O       -3.44808000      -3.06587000      -0.00150000
O       -4.54789000      -4.73789000       1.70396000
O       -2.36126000      -3.43557000       2.35977000
O        0.00000000      -3.06587000       3.44658000
O       -1.70546000      -4.73789000       4.54640000
O       -2.15133000      -2.14811000      -4.64600000
O       -4.74111000      -1.70224000       4.73961000
O       -4.64450000      -2.14811000       2.14984000
O       -2.36126000      -3.43557000      -2.36276000
O        4.54789000      -4.73789000      -1.70696000
O        4.64450000      -2.14811000      -2.15283000
O        2.36126000      -3.43557000      -2.36276000
O        4.74111000       1.70868000      -4.74260000
O       -5.84092000       0.00322000       3.06759000
O       -3.06909000       0.00322000       5.83943000
O       -4.74111000       1.70868000       4.73961000
O        3.44808000      -3.06587000      -0.00150000
O       -2.15133000       2.15455000       4.64300000
O       -3.43879000       2.36448000       6.92624000
O        4.54789000      -4.73789000       1.70396000
O        4.64450000      -2.14811000       2.14984000
O       -6.92774000       2.36448000      -3.44028000
O       -2.15133000      -2.14811000       4.64300000
O        1.70546000      -4.73789000      -4.54939000
O        3.06909000       0.00322000      -5.84242000
O        4.74111000      -1.70224000      -4.74260000
O        2.15133000      -2.14811000      -4.64600000
O        3.43879000      -2.35804000      -6.92923000
O        0.00000000       3.07231000       3.44658000
O        1.70546000       4.74433000       4.54640000
O        2.15133000       2.15455000       4.64300000
O        2.36126000       3.44201000       2.35977000
O        0.00000000      -3.06587000      -3.44957000
O       -1.70546000      -4.73789000      -4.54939000
O        3.43879000      -2.35804000       6.92624000
O        4.54789000       4.74433000       1.70396000
O       -1.70546000       4.74433000       4.54640000
O        2.36126000      -3.43557000       2.35977000
O       -3.44808000       3.07231000      -0.00150000
O       -4.54789000       4.74433000      -1.70696000
O       -4.64450000       2.15455000      -2.15283000
O       -2.36126000       3.44201000      -2.36276000
O        5.84092000       0.00322000       3.06759000
O        4.74111000       1.70868000       4.73961000
O        4.64450000       2.15455000       2.14984000
O        6.92774000       2.36448000       3.43729000
O       -6.92774000      -2.35804000       3.43729000
O        1.70546000      -4.73789000       4.54640000
O        2.15133000      -2.14811000       4.64300000
O        3.44808000       3.07231000      -0.00150000
O       -3.06909000       0.00322000      -5.84242000
O       -4.74111000      -1.70224000      -4.74260000
O       -3.43879000      -2.35804000      -6.92923000
O        4.74111000      -1.70224000       4.73961000
O        6.92774000      -2.35804000       3.43729000
O        3.06909000       0.00322000       5.83943000
O        3.43879000       2.36448000       6.92624000
O       -3.43879000      -2.35804000       6.92624000
O        0.00000000       3.07231000      -3.44957000
O        2.15133000       2.15455000      -4.64600000
O        3.43879000       2.36448000      -6.92923000
O       -4.54789000       4.74433000       1.70396000
O       -4.64450000       2.15455000       2.14984000
O       -2.36126000       3.44201000       2.35977000
O        5.84092000       0.00322000      -3.07058000
O        4.64450000       2.15455000      -2.15283000
O        6.92774000       2.36448000      -3.44028000
O       -5.84092000       0.00322000      -3.07058000
O       -4.74111000       1.70868000      -4.74260000
O        4.54789000       4.74433000      -1.70696000
O       -1.70546000       4.74433000      -4.54939000
O       -2.15133000       2.15455000      -4.64600000
O       -3.43879000       2.36448000      -6.92923000
O       -4.54789000      -4.73789000      -1.70696000
O       -4.64450000      -2.14811000      -2.15283000
O        6.92774000      -2.35804000      -3.44028000
O       -6.92774000      -2.35804000      -3.44028000
H       -7.77437000       2.85506000       3.49155000
H        1.79707000       5.59148000      -5.03348000
H       -5.03198000      -5.58504000       1.79558000
H       -1.79708000      -5.58504000       5.03049000
H        5.03198000      -5.58504000      -1.79857000
H       -3.49305000       2.85506000       7.77288000
H        5.03198000      -5.58504000       1.79558000
H       -7.77437000       2.85506000      -3.49454000
H        1.79707000      -5.58504000      -5.03348000
H        3.49304000      -2.84862000      -7.77587000
H        1.79707000       5.59148000       5.03049000
H       -1.79708000      -5.58504000      -5.03348000
H        3.49304000      -2.84862000       7.77288000
H        5.03198000       5.59148000       1.79558000
H       -1.79708000       5.59148000       5.03049000
H       -5.03198000       5.59148000      -1.79857000
H        7.77437000       2.85506000       3.49155000
H       -7.77437000      -2.84862000       3.49155000
H        1.79707000      -5.58504000       5.03049000
H       -3.49305000      -2.84862000      -7.77587000
H        7.77437000      -2.84862000       3.49155000
H        3.49304000       2.85506000       7.77288000
H       -3.49305000      -2.84862000       7.77288000
H        3.49304000       2.85506000      -7.77587000
H       -5.03198000       5.59148000       1.79558000
H        7.77437000       2.85506000      -3.49454000
H        5.03198000       5.59148000      -1.79857000
H       -1.79708000       5.59148000      -5.03348000
H       -3.49305000       2.85506000      -7.77587000
H       -5.03198000      -5.58504000      -1.79857000
H        7.77437000      -2.84862000      -3.49454000
H       -7.77437000      -2.84862000      -3.49454000
