109
Properties=species:S:1:pos:R:3 pbc="F F F"
Ba       0.01198300      -0.01071000       0.03527900
Si      -2.16653000      -0.00147000       4.06698000
Si      -1.49965000       3.75364000      -2.92879000
Si       2.30881000       4.55995000      -0.09383000
Si      -4.56000000      -2.30886000      -0.09383000
Si      -4.50665000      -0.00147700       1.97083000
Si       1.50250000      -3.75659000      -2.92879000
Si      -2.30597000      -4.56290000      -0.09383000
Al       0.00142000       2.16648000       4.06698000
Si       1.50250000       3.75364000      -2.92879000
Si      -2.30597000       4.55995000      -0.09383000
Si       0.00142000       4.50660000       1.97083000
Si       0.00142000      -2.16942000       4.06698000
Si       3.75653000       1.49960000      -2.92879000
Si      -1.49965000      -3.75659000      -2.92879000
Al       2.30881000      -4.56290000      -0.09383000
Si       0.00142000      -4.50955000       1.97083000
Si      -3.75369000      -1.50255000      -2.92879000
Si      -4.56000000       2.30591000      -0.09383000
Si      -3.75369000       1.49960000      -2.92879000
Si       4.56285000      -2.30886000      -0.09383000
Si       2.16937000      -0.00147000       4.06698000
Si       3.75653000      -1.50255000      -2.92879000
Si       4.56285000       2.30590900      -0.09383000
Si       4.50950000      -0.00147000       1.97083000
O       -4.75158000       1.90336000      -4.12578000
O        4.51435000      -1.55105000      -1.51131000
O        4.15908000      -1.31097000       1.10316000
O        6.06392000      -2.83751000       0.16103000
O        3.57466000      -0.00147000       3.28236000
O        2.47371000      -0.00147000       5.64769000
O        4.75442000      -1.90631000      -4.12578000
O       -1.30808000       4.15619000       1.10316000
O       -6.06108000      -0.00146400       2.38891000
O        1.55100000      -4.51440000      -1.51131000
O       -4.15624000       1.30803000       1.10316000
O       -3.57182000      -0.00146900       3.28236000
O       -2.47087000      -0.00147000       5.64769000
O       -1.54815000       4.51145000      -1.51131000
O       -1.31293000      -1.31582000       3.69472000
O       -1.31293000       1.31288000       3.69472000
O       -1.90342000       4.75153000      -4.12578000
O        0.00142000       3.22499000      -3.18365000
O       -4.75158000      -1.90631000      -4.12578000
O       -3.22504000      -0.00147000      -3.18365000
O        4.15908000       1.30803000       1.10316000
O        6.06392000       2.83456100       0.16103000
O        6.06392000      -0.00147000       2.38891000
O       -2.83462000       6.06103000       0.16103000
O       -3.57060000       3.57055000      -0.11960000
O        0.00142000       6.06103000       2.38891000
O        0.00142000      -3.57471000       3.28236000
O        0.00142000      -2.47376000       5.64769000
O       -2.48905000       2.48900000      -2.90302000
O        1.55100000       4.51145000      -1.51131000
O        1.31092000       4.15619000       1.10316000
O        2.83746000       6.06103000       0.16103000
O        3.57345000       3.57055000      -0.11960000
O       -4.51150000      -1.55105000      -1.51131000
O       -4.15624000      -1.31097000       1.10316000
O       -6.06108000      -2.83751000       0.16103000
O       -3.57060000      -3.57350000      -0.11960000
O        1.90626000      -4.75447000      -4.12578000
O       -4.51150000       1.54810000      -1.51131000
O       -6.06108000       2.83456000       0.16103000
O        1.31577000      -1.31582000       3.69472000
O        4.51435000       1.54810000      -1.51131000
O        4.75442000       1.90336000      -4.12578000
O        3.22788000      -0.00147000      -3.18365000
O       -1.90342000      -4.75447000      -4.12578000
O       -2.48905000      -2.49195000      -2.90302000
O        1.31092000      -4.15914000       1.10316000
O        2.83746000      -6.06397000       0.16103000
O        3.57345000      -3.57350000      -0.11960000
O        0.00142000      -6.06397000       2.38891000
O        0.00142000      -3.22794000      -3.18365000
O        2.49190000      -2.49195000      -2.90302000
O       -1.54815000      -4.51440000      -1.51131000
O       -1.30808000      -4.15914000       1.10316000
O       -2.83462000      -6.06397000       0.16103000
O        0.00142000       3.57176000       3.28236000
O        0.00142000       2.47081000       5.64769000
O        1.31577000       1.31288000       3.69472000
O        1.90626000       4.75153000      -4.12578000
O        2.49190000       2.48900000      -2.90302000
H       -5.35905000       2.14916000      -4.85445000
H        6.97664000      -3.15895000       0.31600000
H        2.65899000      -0.00147000       6.61002000
H        5.36189000      -2.15210000      -4.85445000
H       -7.00745000      -0.00147100       2.64345000
H       -2.65615000      -0.00147000       6.61002000
H       -2.14921000       5.35900000      -4.85445000
H       -5.35905000      -2.15210000      -4.85445000
H        6.97664000       3.15601000       0.31600000
H        7.01029000      -0.00147000       2.64345000
H       -3.15606000       6.97375000       0.31600000
H        0.00142000       7.00739000       2.64345000
H        0.00142000      -2.65904000       6.61002000
H        3.15890000       6.97375000       0.31600000
H       -6.97380000      -3.15895000       0.31600000
H        2.15205000      -5.36194000      -4.85445000
H       -6.97380000       3.15601000       0.31600000
H        5.36189000       2.14916000      -4.85445000
H       -2.14921000      -5.36194000      -4.85445000
H        3.15890000      -6.97669000       0.31600000
H        0.00142000      -7.01034000       2.64345000
H       -3.15606000      -6.97669000       0.31600000
H        0.00142000       2.65609000       6.61002000
H        2.15205000       5.35900000      -4.85445000
