109
Properties=species:S:1:pos:R:3 pbc="F F F"
Sr      -0.03507300      -0.01543200      -0.01261400
Si      -2.17322000      -0.00241000       4.06267000
Si      -1.50634000       3.75270000      -2.93310000
Si       2.30212000       4.55901000      -0.09814000
Al      -4.56669000      -2.30980000      -0.09814000
Si      -4.51334000      -0.00241000       1.96652000
Si       1.49581000      -3.75752000      -2.93310000
Si      -2.31265000      -4.56384000      -0.09814000
Si      -0.00527000       2.16554000       4.06267000
Si       1.49581000       3.75270000      -2.93310000
Si      -2.31265000       4.55901000      -0.09814000
Si      -0.00526900       4.50566000       1.96652000
Si      -0.00527000      -2.17036000       4.06267000
Si       3.74985000       1.49866000      -2.93310000
Si      -1.50634000      -3.75752000      -2.93310000
Si       2.30212000      -4.56384000      -0.09814000
Si      -0.00527000      -4.51049000       1.96652000
Al      -3.76038000      -1.50349000      -2.93310000
Si      -4.56669000       2.30498000      -0.09814000
Si      -3.76038000       1.49866000      -2.93310000
Si       4.55616000      -2.30980000      -0.09814000
Si       2.16268000      -0.00241000       4.06267000
Si       3.74985000      -1.50349000      -2.93310000
Si       4.55616000       2.30498000      -0.09814000
Si       4.50281000      -0.00241000       1.96652000
O       -4.75827000       1.90243000      -4.13009000
O        4.50766000      -1.55199000      -1.51562000
O        4.15240000      -1.31191000       1.09885000
O        6.05723000      -2.83845000       0.15672000
O        3.56797000      -0.00241000       3.27805000
O        2.46702000      -0.00241000       5.64338000
O        4.74773000      -1.90725000      -4.13009000
O       -1.31477000       4.15525000       1.09885000
O       -6.06777000      -0.00241000       2.38460000
O        1.54431000      -4.51534000      -1.51562000
O       -4.16293000       1.30709000       1.09885000
O       -3.57850000      -0.00241000       3.27805000
O       -2.47755000      -0.00241000       5.64338000
O       -1.55484000       4.51051000      -1.51562000
O       -1.31962000      -1.31676000       3.69040000
O       -1.31962000       1.31194000       3.69040000
O       -1.91010000       4.75059000      -4.13009000
O       -0.00527000       3.22405000      -3.18796000
O       -4.75827000      -1.90725000      -4.13009000
O       -3.23173000      -0.00241000      -3.18796000
O        4.15240000       1.30709000       1.09885000
O        6.05723000       2.83363000       0.15672000
O        6.05723000      -0.00241000       2.38460000
O       -2.84130000       6.06009000       0.15672000
O       -3.57729000       3.56961000      -0.12391000
O       -0.00527100       6.06009000       2.38460000
O       -0.00527000      -3.57565000       3.27805000
O       -0.00527000      -2.47470000       5.64338000
O       -2.49574000       2.48806000      -2.90733000
O        1.54431000       4.51051000      -1.51562000
O        1.30423000       4.15525000       1.09885000
O        2.83077000       6.06009000       0.15672000
O        3.56676000       3.56961000      -0.12391000
O       -4.51819000      -1.55199000      -1.51562000
O       -4.16293000      -1.31191000       1.09885000
O       -6.06777000      -2.83845000       0.15672000
O       -3.57729000      -3.57444000      -0.12391000
O        1.89957000      -4.75541000      -4.13009000
O       -4.51819000       1.54716000      -1.51562000
O       -6.06777000       2.83363000       0.15672000
O        1.30908000      -1.31676000       3.69040000
O        4.50766000       1.54716000      -1.51562000
O        4.74773000       1.90243000      -4.13009000
O        3.22120000      -0.00241000      -3.18796000
O       -1.91010000      -4.75541000      -4.13009000
O       -2.49574000      -2.49289000      -2.90733000
O        1.30423000      -4.16007000       1.09885000
O        2.83077000      -6.06491000       0.15672000
O        3.56676000      -3.57444000      -0.12391000
O       -0.00527000      -6.06491000       2.38460000
O       -0.00527000      -3.22887000      -3.18796000
O        2.48521000      -2.49289000      -2.90733000
O       -1.55484000      -4.51534000      -1.51562000
O       -1.31477000      -4.16007000       1.09885000
O       -2.84130000      -6.06491000       0.15672000
O       -0.00527000       3.57083000       3.27805000
O       -0.00527000       2.46988000       5.64338000
O        1.30908000       1.31194000       3.69040000
O        1.89957000       4.75059000      -4.13009000
O        2.48521000       2.48806000      -2.90733000
H       -5.36574000       2.14822000      -4.85876000
H        6.96996000      -3.15989000       0.31169000
H        2.65230000      -0.00241000       6.60571000
H        5.35521000      -2.15304000      -4.85876000
H       -7.01413000      -0.00241000       2.63914000
H       -2.66283000      -0.00241000       6.60571000
H       -2.15590000       5.35806000      -4.85876000
H       -5.36574000      -2.15304000      -4.85876000
H        6.96996000       3.15507000       0.31169000
H        7.00360000      -0.00241000       2.63914000
H       -3.16275000       6.97281000       0.31169000
H       -0.00527000       7.00646000       2.63914000
H       -0.00527000      -2.65998000       6.60571000
H        3.15221000       6.97281000       0.31169000
H       -6.98049000      -3.15989000       0.31169000
H        2.14537000      -5.36288000      -4.85876000
H       -6.98049000       3.15507000       0.31169000
H        5.35521000       2.14822000      -4.85876000
H       -2.15590000      -5.36288000      -4.85876000
H        3.15221000      -6.97763000       0.31169000
H       -0.00527000      -7.01128000       2.63914000
H       -3.16275000      -6.97763000       0.31169000
H       -0.00527000       2.65516000       6.60571000
H        2.14537000       5.35806000      -4.85876000
