109
Properties=species:S:1:pos:R:3 pbc="F F F"
Sr       0.02101900      -0.01871800       0.05870500
Si      -2.16649000      -0.00152000       4.06710000
Si      -1.49961000       3.75360000      -2.92867000
Si       2.30885000       4.55991000      -0.09371000
Si      -4.55996000      -2.30890000      -0.09371000
Si      -4.50661000      -0.00152700       1.97095000
Si       1.50254000      -3.75663000      -2.92867000
Si      -2.30593000      -4.56294000      -0.09371000
Al       0.00146000       2.16643000       4.06710000
Si       1.50254000       3.75360000      -2.92867000
Si      -2.30593000       4.55991000      -0.09371000
Si       0.00146000       4.50656000       1.97095000
Si       0.00146000      -2.16947000       4.06710000
Si       3.75657000       1.49956000      -2.92867000
Si      -1.49961000      -3.75663000      -2.92867000
Al       2.30885000      -4.56294000      -0.09371000
Si       0.00146000      -4.50959000       1.97095000
Si      -3.75365000      -1.50259000      -2.92867000
Si      -4.55996000       2.30587000      -0.09371000
Si      -3.75365000       1.49956000      -2.92867000
Si       4.56289000      -2.30890000      -0.09371000
Si       2.16941000      -0.00152000       4.06710000
Si       3.75657000      -1.50259000      -2.92867000
Si       4.56289000       2.30587000      -0.09371000
Si       4.50954000      -0.00152000       1.97095000
O       -4.75154000       1.90332000      -4.12566000
O        4.51439000      -1.55109000      -1.51119000
O        4.15912000      -1.31102000       1.10328000
O        6.06396000      -2.83755000       0.16115000
O        3.57470000      -0.00152000       3.28247000
O        2.47375000      -0.00152000       5.64781000
O        4.75446000      -1.90635000      -4.12566000
O       -1.30804000       4.15615000       1.10328000
O       -6.06104000      -0.00151400       2.38903000
O        1.55104000      -4.51444000      -1.51119000
O       -4.15620000       1.30798000       1.10328000
O       -3.57178000      -0.00151900       3.28247000
O       -2.47083000      -0.00152000       5.64781000
O       -1.54811000       4.51141000      -1.51119000
O       -1.31289000      -1.31587000       3.69483000
O       -1.31289000       1.31283000       3.69483000
O       -1.90338000       4.75148000      -4.12566000
O        0.00146000       3.22495000      -3.18353000
O       -4.75154000      -1.90635000      -4.12566000
O       -3.22500000      -0.00152000      -3.18353000
O        4.15912000       1.30798000       1.10328000
O        6.06396000       2.83452000       0.16115000
O        6.06396000      -0.00152000       2.38903000
O       -2.83458000       6.06098000       0.16115000
O       -3.57056000       3.57051000      -0.11948000
O        0.00146000       6.06098000       2.38903000
O        0.00146000      -3.57475000       3.28247000
O        0.00146000      -2.47380000       5.64781000
O       -2.48901000       2.48896000      -2.90290000
O        1.55104000       4.51141000      -1.51119000
O        1.31096000       4.15615000       1.10328000
O        2.83750000       6.06098000       0.16115000
O        3.57349000       3.57051000      -0.11948000
O       -4.51146000      -1.55109000      -1.51119000
O       -4.15620000      -1.31102000       1.10328000
O       -6.06104000      -2.83755000       0.16115000
O       -3.57056000      -3.57354000      -0.11948000
O        1.90630000      -4.75452000      -4.12566000
O       -4.51146000       1.54806000      -1.51119000
O       -6.06104000       2.83452000       0.16115000
O        1.31581000      -1.31587000       3.69483000
O        4.51439000       1.54806000      -1.51119000
O        4.75446000       1.90332000      -4.12566000
O        3.22792000      -0.00152000      -3.18353000
O       -1.90338000      -4.75452000      -4.12566000
O       -2.48901000      -2.49199000      -2.90290000
O        1.31096000      -4.15918000       1.10328000
O        2.83750000      -6.06402000       0.16115000
O        3.57349000      -3.57354000      -0.11948000
O        0.00146000      -6.06402000       2.38903000
O        0.00146000      -3.22798000      -3.18353000
O        2.49194000      -2.49199000      -2.90290000
O       -1.54811000      -4.51444000      -1.51119000
O       -1.30804000      -4.15918000       1.10328000
O       -2.83458000      -6.06402000       0.16115000
O        0.00146000       3.57172000       3.28247000
O        0.00146000       2.47077000       5.64781000
O        1.31581000       1.31283000       3.69483000
O        1.90630000       4.75148000      -4.12566000
O        2.49194000       2.48896000      -2.90290000
H       -5.35901000       2.14912000      -4.85433000
H        6.97668000      -3.15900000       0.31612000
H        2.65903000      -0.00152000       6.61013000
H        5.36193000      -2.15215000      -4.85433000
H       -7.00741000      -0.00152100       2.64357000
H       -2.65611000      -0.00152000       6.61013000
H       -2.14917000       5.35896000      -4.85433000
H       -5.35901000      -2.15215000      -4.85433000
H        6.97668000       3.15596000       0.31612000
H        7.01033000      -0.00152000       2.64357000
H       -3.15602000       6.97371000       0.31612000
H        0.00146000       7.00735000       2.64357000
H        0.00146000      -2.65908000       6.61013000
H        3.15894000       6.97371000       0.31612000
H       -6.97376000      -3.15900000       0.31612000
H        2.15209000      -5.36199000      -4.85433000
H       -6.97376000       3.15596000       0.31612000
H        5.36193000       2.14912000      -4.85433000
H       -2.14917000      -5.36199000      -4.85433000
H        3.15894000      -6.97674000       0.31612000
H        0.00146000      -7.01038000       2.64357000
H       -3.15602000      -6.97674000       0.31612000
H        0.00146000       2.65605000       6.61013000
H        2.15209000       5.35896000      -4.85433000
