109
Properties=species:S:1:pos:R:3 pbc="F F F"
Sr      -0.03117500      -0.01905400      -0.00338300
Si      -2.17175000      -0.00238000       4.06398000
Si      -1.50488000       3.75273000      -2.93180000
Si       2.30358000       4.55905000      -0.09683000
Si      -4.56523000      -2.30977000      -0.09683000
Al      -4.51188000      -0.00238000       1.96782000
Si       1.49727000      -3.75749000      -2.93180000
Si      -2.31119000      -4.56380000      -0.09683000
Si      -0.00380000       2.16557000       4.06398000
Si       1.49727000       3.75273000      -2.93180000
Si      -2.31119000       4.55905000      -0.09683000
Si      -0.00380000       4.50570000       1.96782000
Si      -0.00380000      -2.17033000       4.06398000
Si       3.75131000       1.49870000      -2.93180000
Al      -1.50488000      -3.75749000      -2.93180000
Si       2.30358000      -4.56380000      -0.09683000
Si      -0.00380000      -4.51045000       1.96782000
Si      -3.75892000      -1.50345000      -2.93180000
Si      -4.56523000       2.30501000      -0.09683000
Si      -3.75892000       1.49870000      -2.93180000
Si       4.55762000      -2.30977000      -0.09683000
Si       2.16415000      -0.00238000       4.06398000
Si       3.75131000      -1.50345000      -2.93180000
Si       4.55762000       2.30501000      -0.09683000
Si       4.50427000      -0.00238000       1.96782000
O       -4.75680000       1.90246000      -4.12878000
O        4.50912000      -1.55195000      -1.51431000
O        4.15386000      -1.31188000       1.10015000
O        6.05870000      -2.83841000       0.15803000
O        3.56943000      -0.00238000       3.27935000
O        2.46848000      -0.00238000       5.64469000
O        4.74920000      -1.90721000      -4.12878000
O       -1.31330000       4.15528000       1.10015000
O       -6.06630000      -0.00238000       2.38591000
O        1.54577000      -4.51530000      -1.51431000
O       -4.16147000       1.30712000       1.10015000
O       -3.57704000      -0.00238000       3.27935000
O       -2.47609000      -0.00238000       5.64469000
O       -1.55338000       4.51055000      -1.51431000
O       -1.31815000      -1.31673000       3.69171000
O       -1.31815000       1.31197000       3.69171000
O       -1.90864000       4.75062000      -4.12878000
O       -0.00380000       3.22409000      -3.18666000
O       -4.75680000      -1.90721000      -4.12878000
O       -3.23027000      -0.00238000      -3.18666000
O        4.15386000       1.30712000       1.10015000
O        6.05870000       2.83366000       0.15803000
O        6.05870000      -0.00238000       2.38591000
O       -2.83984000       6.06012000       0.15803000
O       -3.57583000       3.56965000      -0.12260000
O       -0.00380000       6.06012000       2.38591000
O       -0.00380000      -3.57562000       3.27935000
O       -0.00380000      -2.47467000       5.64469000
O       -2.49428000       2.48810000      -2.90602000
O        1.54577000       4.51055000      -1.51431000
O        1.30570000       4.15528000       1.10015000
O        2.83223000       6.06012000       0.15803000
O        3.56822000       3.56965000      -0.12260000
O       -4.51673000      -1.55195000      -1.51431000
O       -4.16147000      -1.31188000       1.10015000
O       -6.06630000      -2.83841000       0.15803000
O       -3.57583000      -3.57440000      -0.12260000
O        1.90103000      -4.75538000      -4.12878000
O       -4.51673000       1.54720000      -1.51431000
O       -6.06630000       2.83366000       0.15803000
O        1.31055000      -1.31673000       3.69171000
O        4.50912000       1.54720000      -1.51431000
O        4.74920000       1.90246000      -4.12878000
O        3.22266000      -0.00238000      -3.18666000
O       -1.90864000      -4.75538000      -4.12878000
O       -2.49428000      -2.49285000      -2.90602000
O        1.30570000      -4.16004000       1.10015000
O        2.83223000      -6.06488000       0.15803000
O        3.56822000      -3.57440000      -0.12260000
O       -0.00380000      -6.06488000       2.38591000
O       -0.00380000      -3.22884000      -3.18666000
O        2.48667000      -2.49285000      -2.90602000
O       -1.55338000      -4.51530000      -1.51431000
O       -1.31330000      -4.16004000       1.10015000
O       -2.83984000      -6.06488000       0.15803000
O       -0.00380000       3.57086000       3.27935000
O       -0.00380000       2.46991000       5.64469000
O        1.31055000       1.31197000       3.69171000
O        1.90103000       4.75062000      -4.12878000
O        2.48667000       2.48810000      -2.90602000
H       -5.36428000       2.14825000      -4.85745000
H        6.97142000      -3.15986000       0.31300000
H        2.65376000      -0.00238000       6.60701000
H        5.35667000      -2.15301000      -4.85745000
H       -7.01267000      -0.00238000       2.64045000
H       -2.66137000      -0.00238000       6.60701000
H       -2.15444000       5.35809000      -4.85745000
H       -5.36428000      -2.15301000      -4.85745000
H        6.97142000       3.15510000       0.31300000
H        7.00506000      -0.00238000       2.64045000
H       -3.16128000       6.97284000       0.31300000
H       -0.00380000       7.00649000       2.64045000
H       -0.00380000      -2.65994000       6.60701000
H        3.15368000       6.97284000       0.31300000
H       -6.97903000      -3.15986000       0.31300000
H        2.14683000      -5.36285000      -4.85745000
H       -6.97903000       3.15510000       0.31300000
H        5.35667000       2.14825000      -4.85745000
H       -2.15444000      -5.36285000      -4.85745000
H        3.15368000      -6.97760000       0.31300000
H       -0.00380000      -7.01124000       2.64045000
H       -3.16128000      -6.97760000       0.31300000
H       -0.00380000       2.65519000       6.60701000
H        2.14683000       5.35809000      -4.85745000
