109
Properties=species:S:1:pos:R:3 pbc="F F F"
Ba      -0.00141400       0.00261800       0.00028200
Si      -2.16841000       0.00092000       4.06395000
Si      -1.50154000       3.75604000      -2.93183000
Si       2.30692000       4.56235000      -0.09686000
Si      -4.56189000      -2.30646000      -0.09686000
Al      -4.50854000       0.00092000       1.96779000
Si       1.50061000      -3.75419000      -2.93183000
Si      -2.30785000      -4.56050000      -0.09686000
Si      -0.00046000       2.16887000       4.06395000
Si       1.50061000       3.75604000      -2.93183000
Si      -2.30785000       4.56235000      -0.09686000
Si      -0.00046000       4.50900000       1.96779000
Si      -0.00046000      -2.16703000       4.06395000
Al       3.75465000       1.50200000      -2.93183000
Si      -1.50154000      -3.75419000      -2.93183000
Si       2.30692000      -4.56050000      -0.09686000
Si      -0.00046000      -4.50715000       1.96779000
Si      -3.75558000      -1.50015000      -2.93183000
Si      -4.56189000       2.30831000      -0.09686000
Si      -3.75558000       1.50200000      -2.93183000
Si       4.56096000      -2.30646000      -0.09686000
Si       2.16749000       0.00092000       4.06395000
Si       3.75465000      -1.50015000      -2.93183000
Si       4.56096000       2.30831000      -0.09686000
Si       4.50761000       0.00092000       1.96779000
O       -4.75346000       1.90576000      -4.12881000
O        4.51246000      -1.54865000      -1.51434000
O        4.15720000      -1.30858000       1.10012000
O        6.06204000      -2.83511000       0.15800000
O        3.57277000       0.00092000       3.27932000
O        2.47182000       0.00092000       5.64466000
O        4.75254000      -1.90391000      -4.12881000
O       -1.30996000       4.15859000       1.10012000
O       -6.06296000       0.00092000       2.38588000
O        1.54911000      -4.51200000      -1.51434000
O       -4.15813000       1.31042000       1.10012000
O       -3.57370000       0.00092000       3.27932000
O       -2.47275000       0.00092000       5.64466000
O       -1.55004000       4.51385000      -1.51434000
O       -1.31481000      -1.31343000       3.69168000
O       -1.31481000       1.31527000       3.69168000
O       -1.90530000       4.75392000      -4.12881000
O       -0.00046000       3.22739000      -3.18669000
O       -4.75346000      -1.90391000      -4.12881000
O       -3.22693000       0.00092000      -3.18669000
O        4.15720000       1.31042000       1.10012000
O        6.06204000       2.83696000       0.15800000
O        6.06204000       0.00092000       2.38588000
O       -2.83650000       6.06342000       0.15800000
O       -3.57249000       3.57295000      -0.12263000
O       -0.00046000       6.06342000       2.38588000
O       -0.00046000      -3.57231000       3.27932000
O       -0.00046000      -2.47136000       5.64466000
O       -2.49094000       2.49140000      -2.90605000
O        1.54911000       4.51385000      -1.51434000
O        1.30904000       4.15859000       1.10012000
O        2.83557000       6.06342000       0.15800000
O        3.57156000       3.57295000      -0.12263000
O       -4.51339000      -1.54865000      -1.51434000
O       -4.15813000      -1.30858000       1.10012000
O       -6.06296000      -2.83511000       0.15800000
O       -3.57249000      -3.57110000      -0.12263000
O        1.90437000      -4.75208000      -4.12881000
O       -4.51339000       1.55050000      -1.51434000
O       -6.06296000       2.83696000       0.15800000
O        1.31389000      -1.31343000       3.69168000
O        4.51246000       1.55050000      -1.51434000
O        4.75254000       1.90576000      -4.12881000
O        3.22600000       0.00092000      -3.18669000
O       -1.90530000      -4.75208000      -4.12881000
O       -2.49094000      -2.48955000      -2.90605000
O        1.30904000      -4.15674000       1.10012000
O        2.83557000      -6.06158000       0.15800000
O        3.57156000      -3.57110000      -0.12263000
O       -0.00046000      -6.06158000       2.38588000
O       -0.00046000      -3.22554000      -3.18669000
O        2.49001000      -2.48955000      -2.90605000
O       -1.55004000      -4.51200000      -1.51434000
O       -1.30996000      -4.15674000       1.10012000
O       -2.83650000      -6.06158000       0.15800000
O       -0.00046000       3.57416000       3.27932000
O       -0.00046000       2.47321000       5.64466000
O        1.31389000       1.31527000       3.69168000
O        1.90437000       4.75392000      -4.12881000
O        2.49001000       2.49140000      -2.90605000
H       -5.36093000       2.15156000      -4.85748000
H        6.97476000      -3.15656000       0.31296000
H        2.65710000       0.00092000       6.60698000
H        5.36001000      -2.14971000      -4.85748000
H       -7.00933000       0.00092000       2.64042000
H       -2.65803000       0.00092000       6.60698000
H       -2.15109000       5.36140000      -4.85748000
H       -5.36093000      -2.14971000      -4.85748000
H        6.97476000       3.15840000       0.31296000
H        7.00840000       0.00092000       2.64042000
H       -3.15794000       6.97615000       0.31296000
H       -0.00046000       7.00979000       2.64042000
H       -0.00046000      -2.65664000       6.60698000
H        3.15702000       6.97615000       0.31296000
H       -6.97568000      -3.15656000       0.31296000
H        2.15017000      -5.35955000      -4.85748000
H       -6.97568000       3.15840000       0.31296000
H        5.36001000       2.15156000      -4.85748000
H       -2.15109000      -5.35955000      -4.85748000
H        3.15702000      -6.97430000       0.31296000
H       -0.00046000      -7.00794000       2.64042000
H       -3.15794000      -6.97430000       0.31296000
H       -0.00046000       2.65849000       6.60698000
H        2.15017000       5.36140000      -4.85748000
