145
Properties=species:S:1:pos:R:3 pbc="F F F"
Sr      -0.04004600       0.02053100       0.00972100
Si      -3.35303000       1.55584000       5.53816000
Si       3.74934000      -3.34875000       1.55689000
Al      -3.75617000       3.35048000      -1.55307000
Si       5.53283000       1.55584000       3.35153000
Si      -5.53966000      -1.55412000       3.35153000
Si       3.34620000      -1.55412000      -5.53433000
Si       1.55156000       3.35048000       3.75467000
Si      -1.55839000      -3.34875000      -3.75084000
Si       3.74934000      -3.34875000      -1.55307000
Si       3.34620000       1.55584000      -5.53433000
Si      -3.75617000       3.35048000       1.55689000
Si       5.53283000       1.55584000      -3.34770000
Si      -5.53966000       1.55584000      -3.34770000
Al      -3.35303000      -1.55412000       5.53816000
Si       1.55156000       3.35048000      -3.75084000
Si      -3.75617000      -3.34875000       1.55689000
Si      -1.55839000      -3.34875000       3.75467000
Si       5.53283000      -1.55412000       3.35153000
Si       3.34620000       1.55584000       5.53816000
Si      -5.53966000       1.55584000       3.35153000
Si      -3.35303000      -1.55412000      -5.53433000
Si       1.55156000      -3.34875000       3.75467000
Si       3.74934000       3.35048000      -1.55307000
Si      -1.55839000       3.35048000      -3.75084000
Si      -3.35303000       1.55584000      -5.53433000
Si      -3.75617000      -3.34875000      -1.55307000
Si       5.53283000      -1.55412000      -3.34770000
Si      -5.53966000      -1.55412000      -3.34770000
Si       1.55156000      -3.34875000      -3.75084000
Si       3.34620000      -1.55412000       5.53816000
Si       3.74934000       3.35048000       1.55689000
Si      -1.55839000       3.35048000       3.75467000
O       -6.93115000       2.36213000       3.44070000
O        1.70205000       4.74197000      -4.54598000
O        2.35785000       3.43965000      -2.35935000
O       -3.45149000      -3.06822000       0.00191000
O       -4.55131000      -4.74024000       1.70737000
O       -2.36468000      -3.43793000       2.36318000
O       -0.00341000      -3.06822000       3.44999000
O       -1.70887000      -4.74024000       4.54981000
O       -2.15475000      -2.15047000      -4.64259000
O       -4.74452000      -1.70460000       4.74302000
O       -4.64791000      -2.15047000       2.15325000
O       -2.36468000      -3.43793000      -2.35935000
O        4.54448000      -4.74024000      -1.70355000
O        4.64109000      -2.15047000      -2.14942000
O        2.35785000      -3.43793000      -2.35935000
O        4.73769000       1.70632000      -4.73919000
O       -5.84434000       0.00086000       3.07100000
O       -3.07250000       0.00086000       5.84284000
O       -4.74452000       1.70632000       4.74302000
O        3.44466000      -3.06822000       0.00191000
O       -2.15475000       2.15219000       4.64641000
O       -3.44220000       2.36213000       6.92965000
O        4.54448000      -4.74024000       1.70737000
O        4.64109000      -2.15047000       2.15325000
O       -6.93115000       2.36213000      -3.43687000
O       -2.15475000      -2.15047000       4.64641000
O        1.70205000      -4.74024000      -4.54598000
O        3.06567000       0.00086000      -5.83901000
O        4.73769000      -1.70460000      -4.73919000
O        2.14792000      -2.15047000      -4.64259000
O        3.43537000      -2.36040000      -6.92582000
O       -0.00341000       3.06995000       3.44999000
O        1.70205000       4.74197000       4.54981000
O        2.14792000       2.15219000       4.64641000
O        2.35785000       3.43965000       2.36318000
O       -0.00341000      -3.06822000      -3.44616000
O       -1.70887000      -4.74024000      -4.54598000
O        3.43537000      -2.36040000       6.92965000
O        4.54448000       4.74197000       1.70737000
O       -1.70887000       4.74197000       4.54981000
O        2.35785000      -3.43793000       2.36318000
O       -3.45149000       3.06995000       0.00191000
O       -4.55131000       4.74197000      -1.70355000
O       -4.64791000       2.15219000      -2.14942000
O       -2.36468000       3.43965000      -2.35935000
O        5.83751000       0.00086000       3.07100000
O        4.73769000       1.70632000       4.74302000
O        4.64109000       2.15219000       2.15325000
O        6.92432000       2.36213000       3.44070000
O       -6.93115000      -2.36040000       3.44070000
O        1.70205000      -4.74024000       4.54981000
O        2.14792000      -2.15047000       4.64641000
O        3.44466000       3.06995000       0.00191000
O       -3.07250000       0.00086000      -5.83901000
O       -4.74452000      -1.70460000      -4.73919000
O       -3.44220000      -2.36040000      -6.92582000
O        4.73769000      -1.70460000       4.74302000
O        6.92432000      -2.36040000       3.44070000
O        3.06567000       0.00086000       5.84284000
O        3.43537000       2.36213000       6.92965000
O       -3.44220000      -2.36040000       6.92965000
O       -0.00341000       3.06995000      -3.44616000
O        2.14792000       2.15219000      -4.64259000
O        3.43537000       2.36213000      -6.92582000
O       -4.55131000       4.74197000       1.70737000
O       -4.64791000       2.15219000       2.15325000
O       -2.36468000       3.43965000       2.36318000
O        5.83751000       0.00086000      -3.06717000
O        4.64109000       2.15219000      -2.14942000
O        6.92432000       2.36213000      -3.43687000
O       -5.84434000       0.00086000      -3.06717000
O       -4.74452000       1.70632000      -4.73919000
O        4.54448000       4.74197000      -1.70355000
O       -1.70887000       4.74197000      -4.54598000
O       -2.15475000       2.15219000      -4.64259000
O       -3.44220000       2.36213000      -6.92582000
O       -4.55131000      -4.74024000      -1.70355000
O       -4.64791000      -2.15047000      -2.14942000
O        6.92432000      -2.36040000      -3.43687000
O       -6.93115000      -2.36040000      -3.43687000
H       -7.77779000       2.85270000       3.49496000
H        1.79366000       5.58912000      -5.03007000
H       -5.03540000      -5.58740000       1.79899000
H       -1.80049000      -5.58740000       5.03389000
H        5.02857000      -5.58740000      -1.79516000
H       -3.49646000       2.85270000       7.77629000
H        5.02857000      -5.58740000       1.79899000
H       -7.77779000       2.85270000      -3.49113000
H        1.79366000      -5.58740000      -5.03007000
H        3.48963000      -2.85098000      -7.77246000
H        1.79366000       5.58912000       5.03389000
H       -1.80049000      -5.58740000      -5.03007000
H        3.48963000      -2.85098000       7.77629000
H        5.02857000       5.58912000       1.79899000
H       -1.80049000       5.58912000       5.03389000
H       -5.03540000       5.58912000      -1.79516000
H        7.77096000       2.85270000       3.49496000
H       -7.77779000      -2.85098000       3.49496000
H        1.79366000      -5.58740000       5.03389000
H       -3.49646000      -2.85098000      -7.77246000
H        7.77096000      -2.85098000       3.49496000
H        3.48963000       2.85270000       7.77629000
H       -3.49646000      -2.85098000       7.77629000
H        3.48963000       2.85270000      -7.77246000
H       -5.03540000       5.58912000       1.79899000
H        7.77096000       2.85270000      -3.49113000
H        5.02857000       5.58912000      -1.79516000
H       -1.80049000       5.58912000      -5.03007000
H       -3.49646000       2.85270000      -7.77246000
H       -5.03540000      -5.58740000      -1.79516000
H        7.77096000      -2.85098000      -3.49113000
H       -7.77779000      -2.85098000      -3.49113000
