109
Properties=species:S:1:pos:R:3 pbc="F F F"
Sr      -0.03028600      -0.01373300      -0.01518500
Si      -2.17179000      -0.00194000       4.06267000
Si      -1.50491000       3.75317000      -2.93310000
Si       2.30355000       4.55949000      -0.09814000
Si      -4.56526000      -2.30933000      -0.09814000
Si      -4.51191000      -0.00193400       1.96652000
Si       1.49724000      -3.75705000      -2.93310000
Al      -2.31123000      -4.56336000      -0.09814000
Si      -0.00384000       2.16601000       4.06267000
Si       1.49724000       3.75317000      -2.93310000
Si      -2.31123000       4.55949000      -0.09814000
Si      -0.00383700       4.50614000       1.96652000
Si      -0.00384000      -2.16989000       4.06267000
Si       3.75127000       1.49914000      -2.93310000
Si      -1.50491000      -3.75705000      -2.93310000
Si       2.30355000      -4.56336000      -0.09814000
Si      -0.00384000      -4.51001000       1.96652000
Si      -3.75895000      -1.50301000      -2.93310000
Si      -4.56526000       2.30545000      -0.09814000
Al      -3.75895000       1.49914000      -2.93310000
Si       4.55759000      -2.30933000      -0.09814000
Si       2.16411000      -0.00194000       4.06267000
Si       3.75127000      -1.50301000      -2.93310000
Si       4.55759000       2.30545000      -0.09814000
Si       4.50424000      -0.00194000       1.96652000
O       -4.75684000       1.90290000      -4.13009000
O        4.50909000      -1.55151000      -1.51562000
O        4.15382000      -1.31144000       1.09885000
O        6.05866000      -2.83797000       0.15672000
O        3.56940000      -0.00194000       3.27805000
O        2.46845000      -0.00194000       5.64338000
O        4.74916000      -1.90677000      -4.13009000
O       -1.31334000       4.15572000       1.09885000
O       -6.06634000      -0.00194500       2.38460000
O        1.54574000      -4.51486000      -1.51562000
O       -4.16150000       1.30756000       1.09885000
O       -3.57708000      -0.00194100       3.27805000
O       -2.47613000      -0.00194000       5.64338000
O       -1.55341000       4.51099000      -1.51562000
O       -1.31819000      -1.31629000       3.69040000
O       -1.31819000       1.31241000       3.69040000
O       -1.90868000       4.75106000      -4.13009000
O       -0.00384000       3.22453000      -3.18796000
O       -4.75684000      -1.90677000      -4.13009000
O       -3.23030000      -0.00194000      -3.18796000
O        4.15382000       1.30756000       1.09885000
O        6.05866000       2.83410000       0.15672000
O        6.05866000      -0.00194000       2.38460000
O       -2.83988000       6.06056000       0.15672000
O       -3.57586000       3.57009000      -0.12391000
O       -0.00384300       6.06056000       2.38460000
O       -0.00384000      -3.57518000       3.27805000
O       -0.00384000      -2.47423000       5.64338000
O       -2.49431000       2.48854000      -2.90733000
O        1.54574000       4.51099000      -1.51562000
O        1.30566000       4.15572000       1.09885000
O        2.83220000       6.06056000       0.15672000
O        3.56819000       3.57009000      -0.12391000
O       -4.51676000      -1.55151000      -1.51562000
O       -4.16150000      -1.31144000       1.09885000
O       -6.06634000      -2.83797000       0.15672000
O       -3.57586000      -3.57396000      -0.12391000
O        1.90100000      -4.75494000      -4.13009000
O       -4.51676000       1.54764000      -1.51562000
O       -6.06634000       2.83410000       0.15672000
O        1.31051000      -1.31629000       3.69040000
O        4.50909000       1.54764000      -1.51562000
O        4.74916000       1.90290000      -4.13009000
O        3.22262000      -0.00194000      -3.18796000
O       -1.90868000      -4.75494000      -4.13009000
O       -2.49431000      -2.49241000      -2.90733000
O        1.30566000      -4.15960000       1.09885000
O        2.83220000      -6.06444000       0.15672000
O        3.56819000      -3.57396000      -0.12391000
O       -0.00384000      -6.06444000       2.38460000
O       -0.00384000      -3.22840000      -3.18796000
O        2.48664000      -2.49241000      -2.90733000
O       -1.55341000      -4.51486000      -1.51562000
O       -1.31334000      -4.15960000       1.09885000
O       -2.83988000      -6.06444000       0.15672000
O       -0.00384000       3.57130000       3.27805000
O       -0.00384000       2.47035000       5.64338000
O        1.31051000       1.31241000       3.69040000
O        1.90100000       4.75106000      -4.13009000
O        2.48664000       2.48854000      -2.90733000
H       -5.36431000       2.14869000      -4.85876000
H        6.97138000      -3.15942000       0.31169000
H        2.65373000      -0.00194000       6.60571000
H        5.35663000      -2.15257000      -4.85876000
H       -7.01271000      -0.00193900       2.63914000
H       -2.66141000      -0.00194000       6.60571000
H       -2.15447000       5.35853000      -4.85876000
H       -5.36431000      -2.15257000      -4.85876000
H        6.97138000       3.15554000       0.31169000
H        7.00503000      -0.00194000       2.63914000
H       -3.16132000       6.97328000       0.31169000
H       -0.00383900       7.00693000       2.63914000
H       -0.00384000      -2.65950000       6.60571000
H        3.15364000       6.97328000       0.31169000
H       -6.97906000      -3.15942000       0.31169000
H        2.14679000      -5.36241000      -4.85876000
H       -6.97906000       3.15554000       0.31169000
H        5.35663000       2.14869000      -4.85876000
H       -2.15447000      -5.36241000      -4.85876000
H        3.15364000      -6.97716000       0.31169000
H       -0.00384000      -7.01080000       2.63914000
H       -3.16132000      -6.97716000       0.31169000
H       -0.00384000       2.65563000       6.60571000
H        2.14679000       5.35853000      -4.85876000
