109
Properties=species:S:1:pos:R:3 pbc="F F F"
K       -0.01663700      -0.05281700       0.01437900
Al      -1.52796000      -4.42677000       1.26295000
Si      -4.59309000      -0.89193000      -1.25320000
Si      -3.06698000      -3.53523000      -1.25320000
Si      -3.06526000      -0.01083000      -3.74407000
Si      -1.54001000      -2.65264000      -3.74407000
Si      -3.06957000      -0.00039000       3.73978000
Si       1.52598000      -4.42677000       1.26295000
Si      -1.53313000      -2.66158000       3.73978000
Si      -3.06871000       3.53146000       1.26295000
Si       3.06500000      -3.53523000      -1.25320000
Si      -1.52710000       4.41852000      -1.25320000
Si       1.53803000      -2.65264000      -3.74407000
Si      -1.52624000       2.65483000      -3.74407000
Si       1.53114000      -2.66158000       3.73978000
Si      -1.53743000       2.65334000       3.73978000
Si       4.59369000       0.88667000       1.26295000
Si       4.59111000      -0.89193000      -1.25320000
Si       3.06328000      -0.01083000      -3.74407000
Si       3.06758000      -0.00039000       3.73978000
Si       3.06672000       3.53146000       1.26295000
Si       1.52512000       4.41852000      -1.25320000
Si       1.52426000       2.65483000      -3.74407000
Si       1.53545000       2.65334000       3.73978000
Si      -4.59568000       0.88667000       1.26295000
O        1.89094000       1.08943000       3.59375000
O        3.57973000      -0.03468000       5.26463000
O        2.49346000       3.51059000       2.76814000
O        4.30620000       4.55419000       1.17589000
O        1.90471000       4.00555000       0.25480000
O        2.50723000       5.59183000      -1.75587000
O        1.68608000       3.13787000      -2.21641000
O        4.27349000      -2.47075000      -1.30094000
O       -2.51094000      -1.45100000       3.32697000
O       -3.58171000      -0.03468000       5.26463000
O       -1.89292000       1.08943000       3.59375000
O       -0.00099000      -4.11667000       0.85857000
O       -1.79652000      -3.91987000       2.76814000
O       -4.42525000      -0.35671000       0.25480000
O       -1.79394000      -6.01155000       1.17589000
O       -2.51955000      -3.65748000       0.25480000
O       -6.10027000      -0.62805000      -1.75587000
O       -3.56450000      -0.11221000      -2.21641000
O        6.09828000      -0.62805000      -1.75587000
O        3.56251000      -0.11221000      -2.21641000
O        2.50637000       3.51506000      -4.68763000
O        1.76182000       3.11402000       5.26463000
O       -6.10113000       1.44872000       1.17589000
O       -2.50922000       5.59183000      -1.75587000
O       -1.68806000       3.13787000      -2.21641000
O       -0.00099000       4.93287000      -1.30094000
O        1.79195000      -3.93329000      -4.68763000
O        2.49174000      -1.44206000      -4.21585000
O       -4.27548000      -2.47075000      -1.30094000
O       -3.59204000      -4.97242000      -1.75587000
O       -1.87743000      -3.03430000      -2.21641000
O       -4.30130000       0.40959000      -4.68763000
O       -2.49373000      -1.44206000      -4.21585000
O       -1.90153000       1.09539000      -3.85921000
O       -1.79394000      -3.93329000      -4.68763000
O       -0.00185000      -2.19793000      -3.85921000
O       -4.29097000       0.40065000       2.76814000
O        1.79453000      -3.91987000       2.76814000
O        4.29931000       0.40959000      -4.68763000
O        1.90040000       1.09390000      -3.85921000
O       -2.50836000       3.51506000      -4.68763000
O       -0.00099000       2.87548000      -4.21585000
O        2.50809000      -1.45250000       3.32697000
O        1.81691000      -3.08797000       5.26463000
O       -0.00013000       2.89486000       3.32697000
O       -1.76381000       3.11402000       5.26463000
O        3.56165000       2.05401000       0.85857000
O        4.28898000       0.40065000       2.76814000
O        6.09914000       1.44872000       1.17589000
O        4.42326000      -0.35671000       0.25480000
O        1.79195000      -6.01155000       1.17589000
O        2.51756000      -3.65748000       0.25480000
O       -0.00099000      -2.18749000       3.59375000
O       -1.81890000      -3.08797000       5.26463000
O       -3.56364000       2.05401000       0.85857000
O       -2.49545000       3.51059000       2.76814000
O       -4.30819000       4.55419000       1.17589000
O       -1.90669000       4.00555000       0.25480000
O        3.59006000      -4.97242000      -1.75587000
O        1.87544000      -3.03430000      -2.21641000
H        3.89168000      -0.05557000       6.19342000
H        5.06099000       5.17699000       1.12288000
H        3.10484000       6.30577000      -2.06174000
H       -3.89366000      -0.05557000       6.19342000
H       -1.95590000      -6.97662000       1.12288000
H       -7.01736000      -0.46748000      -2.06174000
H        7.01538000      -0.46748000      -2.06174000
H        3.10387000       4.03840000      -5.26166000
H        1.89971000       3.39462000       6.19342000
H       -7.01789000       1.79099000       1.12288000
H       -3.10682000       6.30577000      -2.06174000
H        1.94643000      -4.71241000      -5.26166000
H       -3.91153000      -5.84693000      -2.06174000
H       -5.05327000       0.66537000      -5.26166000
H       -1.94841000      -4.71241000      -5.26166000
H        5.05129000       0.66537000      -5.26166000
H       -3.10585000       4.03840000      -5.26166000
H        1.99097000      -3.34768000       6.19342000
H       -1.90170000       3.39462000       6.19342000
H        7.01590000       1.79099000       1.12288000
H        1.95391000      -6.97662000       1.12288000
H       -1.99296000      -3.34768000       6.19342000
H       -5.06298000       5.17699000       1.12288000
H        3.90955000      -5.84693000      -2.06174000
