109
Properties=species:S:1:pos:R:3 pbc="F F F"
Rb       0.01339900       0.02687700       0.00110000
Si      -2.16649000       0.00289000       4.06453000
Si      -1.49961000       3.75800000      -2.93124000
Al       2.30885000       4.56431000      -0.09628000
Si      -4.55996000      -2.30450000      -0.09628000
Si      -4.50661000       0.00289100       1.96838000
Si       1.50254000      -3.75222000      -2.93124000
Si      -2.30593000      -4.55854000      -0.09628000
Si       0.00146000       2.17084000       4.06453000
Si       1.50254000       3.75800000      -2.93124000
Si      -2.30593000       4.56431000      -0.09628000
Si       0.00146000       4.51096000       1.96838000
Si       0.00146000      -2.16506000       4.06453000
Si       3.75657000       1.50396000      -2.93124000
Si      -1.49961000      -3.75222000      -2.93124000
Si       2.30885000      -4.55854000      -0.09628000
Si       0.00146000      -4.50519000       1.96838000
Si      -3.75365000      -1.49819000      -2.93124000
Si      -4.55996000       2.31028000      -0.09628000
Si      -3.75365000       1.50396000      -2.93124000
Si       4.56289000      -2.30450000      -0.09628000
Si       2.16941000       0.00289000       4.06453000
Si       3.75657000      -1.49819000      -2.93124000
Si       4.56289000       2.31028000      -0.09628000
Si       4.50954000       0.00289000       1.96838000
O       -4.75154000       1.90773000      -4.12823000
O        4.51439000      -1.54669000      -1.51376000
O        4.15912000      -1.30661000       1.10070000
O        6.06396000      -2.83315000       0.15858000
O        3.57470000       0.00289000       3.27990000
O        2.47375000       0.00289000       5.64524000
O        4.75446000      -1.90195000      -4.12823000
O       -1.30804000       4.16055000       1.10070000
O       -6.06104000       0.00288900       2.38646000
O        1.55104000      -4.51004000      -1.51376000
O       -4.15620000       1.31239000       1.10070000
O       -3.57178000       0.00289000       3.27990000
O       -2.47083000       0.00289000       5.64524000
O       -1.54811000       4.51581000      -1.51376000
O       -1.31289000      -1.31146000       3.69226000
O       -1.31289000       1.31724000       3.69226000
O       -1.90338000       4.75589000      -4.12823000
O        0.00146000       3.22935000      -3.18610000
O       -4.75154000      -1.90195000      -4.12823000
O       -3.22500000       0.00289000      -3.18610000
O        4.15912000       1.31239000       1.10070000
O        6.06396000       2.83893000       0.15858000
O        6.06396000       0.00289000       2.38646000
O       -2.83458000       6.06539000       0.15858000
O       -3.57056000       3.57491000      -0.12205000
O        0.00146000       6.06539000       2.38646000
O        0.00146000      -3.57035000       3.27990000
O        0.00146000      -2.46940000       5.64524000
O       -2.48901000       2.49336000      -2.90547000
O        1.55104000       4.51581000      -1.51376000
O        1.31096000       4.16055000       1.10070000
O        2.83750000       6.06539000       0.15858000
O        3.57349000       3.57491000      -0.12205000
O       -4.51146000      -1.54669000      -1.51376000
O       -4.15620000      -1.30661000       1.10070000
O       -6.06104000      -2.83315000       0.15858000
O       -3.57056000      -3.56914000      -0.12205000
O        1.90630000      -4.75011000      -4.12823000
O       -4.51146000       1.55246000      -1.51376000
O       -6.06104000       2.83893000       0.15858000
O        1.31581000      -1.31146000       3.69226000
O        4.51439000       1.55246000      -1.51376000
O        4.75446000       1.90773000      -4.12823000
O        3.22792000       0.00289000      -3.18610000
O       -1.90338000      -4.75011000      -4.12823000
O       -2.48901000      -2.48759000      -2.90547000
O        1.31096000      -4.15477000       1.10070000
O        2.83750000      -6.05961000       0.15858000
O        3.57349000      -3.56914000      -0.12205000
O        0.00146000      -6.05961000       2.38646000
O        0.00146000      -3.22357000      -3.18610000
O        2.49194000      -2.48759000      -2.90547000
O       -1.54811000      -4.51004000      -1.51376000
O       -1.30804000      -4.15477000       1.10070000
O       -2.83458000      -6.05961000       0.15858000
O        0.00146000       3.57613000       3.27990000
O        0.00146000       2.47518000       5.64524000
O        1.31581000       1.31724000       3.69226000
O        1.90630000       4.75589000      -4.12823000
O        2.49194000       2.49336000      -2.90547000
H       -5.35901000       2.15352000      -4.85690000
H        6.97668000      -3.15459000       0.31355000
H        2.65903000       0.00289000       6.60756000
H        5.36193000      -2.14774000      -4.85690000
H       -7.00741000       0.00289000       2.64100000
H       -2.65611000       0.00289000       6.60756000
H       -2.14917000       5.36336000      -4.85690000
H       -5.35901000      -2.14774000      -4.85690000
H        6.97668000       3.16037000       0.31355000
H        7.01033000       0.00289000       2.64100000
H       -3.15602000       6.97811000       0.31355000
H        0.00146000       7.01176000       2.64100000
H        0.00146000      -2.65468000       6.60756000
H        3.15894000       6.97811000       0.31355000
H       -6.97376000      -3.15459000       0.31355000
H        2.15209000      -5.35758000      -4.85690000
H       -6.97376000       3.16037000       0.31355000
H        5.36193000       2.15352000      -4.85690000
H       -2.14917000      -5.35758000      -4.85690000
H        3.15894000      -6.97233000       0.31355000
H        0.00146000      -7.00598000       2.64100000
H       -3.15602000      -6.97233000       0.31355000
H        0.00146000       2.66046000       6.60756000
H        2.15209000       5.36336000      -4.85690000
