109
Properties=species:S:1:pos:R:3 pbc="F F F"
Sr       0.07417900      -0.06681700       0.13083500
Si      -2.16700000      -0.00099500       4.06531000
Si      -1.50011900       3.75411000      -2.93047100
Si       2.30834000       4.56042100      -0.09550000
Si      -4.56047100      -2.30839100      -0.09549900
Si      -4.50711900      -0.00105400       1.96915500
Al       1.50202900      -3.75612100      -2.93047100
Si      -2.30644000      -4.56243100      -0.09550000
Al       0.00095000       2.16695000       4.06531100
Si       1.50203000       3.75411100      -2.93047000
Si      -2.30644000       4.56042000      -0.09550000
Si       0.00095000       4.50707100       1.96915000
Si       0.00095000      -2.16895000       4.06531100
Si       3.75606200       1.50007100      -2.93046900
Si      -1.50012200      -3.75612100      -2.93047000
Si       2.30834000      -4.56243000      -0.09550100
Si       0.00095000      -4.50908100       1.96915000
Si      -3.75416000      -1.50208000      -2.93047000
Si      -4.56047000       2.30638000      -0.09550000
Si      -3.75416000       1.50006900      -2.93047000
Si       4.56238000      -2.30839000      -0.09550000
Si       2.16890000      -0.00100000       4.06531000
Si       3.75606000      -1.50208000      -2.93047200
Si       4.56238200       2.30637700      -0.09550200
Si       4.50903000      -0.00100000       1.96915000
O       -4.75205000       1.90383100      -4.12745000
O        4.51388100      -1.55058100      -1.51299000
O        4.15861100      -1.31050000       1.10148000
O        6.06345000      -2.83704000       0.15936000
O        3.57419000      -0.00100000       3.28068000
O        2.47324000      -0.00100000       5.64601000
O        4.75395000      -1.90584000      -4.12744900
O       -1.30855000       4.15666100       1.10148100
O       -6.06155100      -0.00095500       2.38723600
O        1.55053000      -4.51393100      -1.51299000
O       -4.15671100       1.30850200       1.10148100
O       -3.57229100      -0.00099300       3.28068100
O       -2.47134100      -0.00100000       5.64600900
O       -1.54862000       4.51192000      -1.51299000
O       -1.31340100      -1.31535000       3.69304000
O       -1.31340100       1.31335100       3.69304200
O       -1.90389000       4.75200000      -4.12745000
O        0.00095100       3.22546000      -3.18533100
O       -4.75205000      -1.90584000      -4.12745000
O       -3.22551000      -0.00100100      -3.18533100
O        4.15861100       1.30850100       1.10148000
O        6.06344800       2.83503300       0.15936200
O        6.06345000      -0.00100000       2.38724000
O       -2.83509000       6.06150000       0.15936000
O       -3.57107000       3.57102000      -0.12128000
O        0.00095000       6.06150000       2.38724000
O        0.00095100      -3.57424000       3.28068100
O        0.00095000      -2.47329000       5.64601000
O       -2.48952000       2.48947000      -2.90470000
O        1.55053000       4.51192000      -1.51299000
O        1.31045000       4.15666100       1.10148100
O        2.83699000       6.06150000       0.15936000
O        3.57298000       3.57102100      -0.12128000
O       -4.51197100      -1.55058100      -1.51299000
O       -4.15671000      -1.31049800       1.10147900
O       -6.06155000      -2.83704000       0.15936000
O       -3.57107100      -3.57303100      -0.12128000
O        1.90579000      -4.75400000      -4.12744900
O       -4.51197000       1.54856900      -1.51299000
O       -6.06155000       2.83503000       0.15936000
O        1.31530000      -1.31535000       3.69304000
O        4.51388100       1.54857000      -1.51299100
O        4.75395000       1.90382900      -4.12744900
O        3.22741000      -0.00099300      -3.18533200
O       -1.90388800      -4.75400000      -4.12745000
O       -2.48952100      -2.49148000      -2.90470000
O        1.31045100      -4.15867000       1.10148000
O        2.83699000      -6.06350000       0.15936000
O        3.57298000      -3.57303000      -0.12128000
O        0.00095000      -6.06350000       2.38724000
O        0.00095000      -3.22747100      -3.18533100
O        2.49143000      -2.49148100      -2.90470300
O       -1.54862100      -4.51393100      -1.51299100
O       -1.30855100      -4.15867100       1.10148000
O       -2.83508900      -6.06350000       0.15936000
O        0.00095000       3.57223000       3.28068100
O        0.00095000       2.47127900       5.64600900
O        1.31530000       1.31335100       3.69304100
O        1.90579000       4.75200000      -4.12745000
O        2.49143100       2.48947000      -2.90470000
H       -5.35952000       2.14963000      -4.85613000
H        6.97617000      -3.15848000       0.31432000
H        2.65852000      -0.00100000       6.60834000
H        5.36142000      -2.15164000      -4.85613000
H       -7.00792000      -0.00100900       2.64178000
H       -2.65661900      -0.00100000       6.60834000
H       -2.14968000       5.35947000      -4.85613000
H       -5.35952000      -2.15164000      -4.85613000
H        6.97617000       3.15647900       0.31431900
H        7.00982000      -0.00100000       2.64178000
H       -3.15653000       6.97422000       0.31432000
H        0.00095000       7.00786000       2.64178000
H        0.00095000      -2.65857000       6.60834000
H        3.15843000       6.97422000       0.31432000
H       -6.97427000      -3.15848000       0.31432000
H        2.15158000      -5.36148000      -4.85613000
H       -6.97427000       3.15648000       0.31432000
H        5.36142000       2.14963000      -4.85613000
H       -2.14968000      -5.36148000      -4.85613000
H        3.15843000      -6.97623000       0.31432000
H        0.00095000      -7.00987000       2.64178000
H       -3.15653000      -6.97623000       0.31432000
H        0.00095000       2.65656000       6.60834000
H        2.15158000       5.35947000      -4.85613000
