37
Properties=species:S:1:pos:R:3 pbc="F F F"
Ba       0.08579300       0.00001700       0.00001800
Al       1.55411400      -1.54912800       1.54912900
Si      -1.54417400      -1.54913600       1.54913600
Si       1.55411500       1.54912800       1.54912800
Si      -1.54417400       1.54913600      -1.54913600
Si      -1.54417400      -1.54913600      -1.54913600
Si      -1.54417400       1.54913600       1.54913600
Si       1.55411500      -1.54912900      -1.54912800
Al       1.55411400       1.54912900      -1.54912900
O        2.48121700      -2.47625300      -2.47625200
O        1.86413800       0.00000000      -1.85917600
O       -2.47127900       2.47625200       2.47625100
O        2.48121700      -2.47625200       2.47625300
O        1.86413700       0.00000000       1.85917600
O       -2.47128000      -2.47625100       2.47625100
O        1.86413800      -1.85917600       0.00000000
O        0.00497000      -1.85917300       1.85917300
O       -1.85419700       0.00000000       1.85917400
O       -1.85419700      -1.85917400       0.00000000
O        2.48121700       2.47625200       2.47625300
O        1.86413700       1.85917600       0.00000000
O        0.00497000       1.85917300       1.85917300
O       -2.47128000       2.47625100      -2.47625100
O        0.00497000       1.85917300      -1.85917300
O       -1.85419700       1.85917400       0.00000000
O       -1.85419700       0.00000000      -1.85917400
O       -2.47127900      -2.47625200      -2.47625100
O        0.00497000      -1.85917300      -1.85917300
O        2.48121700       2.47625300      -2.47625200
H        3.04703100      -3.04204900      -3.04205000
H       -3.03708100       3.04204900       3.04205000
H        3.04703100      -3.04205000       3.04204900
H       -3.03708000      -3.04205000       3.04205000
H        3.04703100       3.04205000       3.04204900
H       -3.03708000       3.04205000      -3.04205000
H       -3.03708100      -3.04204900      -3.04205000
H        3.04703200       3.04204900      -3.04205000
