109
Properties=species:S:1:pos:R:3 pbc="F F F"
Ba      -0.00926500       0.03153400      -0.01528800
Si      -2.16884000       0.00373000       4.06268000
Si      -1.50197000       3.75884000      -2.93310000
Al       2.30650000       4.56516000      -0.09813000
Si      -4.56232000      -2.30366000      -0.09813000
Si      -4.50897000       0.00372300       1.96652000
Si       1.50018000      -3.75138000      -2.93310000
Si      -2.30828000      -4.55769000      -0.09813000
Si      -0.00089000       2.17168000       4.06268000
Si       1.50018000       3.75884000      -2.93310000
Si      -2.30828000       4.56516000      -0.09813000
Si      -0.00089000       4.51181000       1.96652000
Si      -0.00089000      -2.16422000       4.06268000
Si       3.75422000       1.50481000      -2.93310000
Si      -1.50197000      -3.75138000      -2.93310000
Si       2.30650000      -4.55769000      -0.09813000
Si      -0.00089000      -4.50434000       1.96652000
Si      -3.75600000      -1.49734000      -2.93310000
Si      -4.56232000       2.31112000      -0.09813000
Al      -3.75600000       1.50481000      -2.93310000
Si       4.56053000      -2.30366000      -0.09813000
Si       2.16706000       0.00373000       4.06268000
Si       3.75422000      -1.49734000      -2.93310000
Si       4.56053000       2.31112000      -0.09813000
Si       4.50718000       0.00373000       1.96652000
O       -4.75389000       1.90857000      -4.13008000
O        4.51203000      -1.54584000      -1.51562000
O        4.15677000      -1.30577000       1.09885000
O        6.06161000      -2.83230000       0.15673000
O        3.57235000       0.00373000       3.27805000
O        2.47140000       0.00373000       5.64338000
O        4.75211000      -1.90110000      -4.13008000
O       -1.31039000       4.16139000       1.09885000
O       -6.06339000       0.00373600       2.38461000
O        1.54868000      -4.50919000      -1.51562000
O       -4.15855000       1.31323000       1.09885000
O       -3.57413000       0.00373100       3.27805000
O       -2.47318000       0.00373000       5.64338000
O       -1.55047000       4.51666000      -1.51562000
O       -1.31524000      -1.31062000       3.69041000
O       -1.31524000       1.31808000       3.69041000
O       -1.90573000       4.75673000      -4.13008000
O       -0.00089000       3.23020000      -3.18796000
O       -4.75389000      -1.90110000      -4.13008000
O       -3.22735000       0.00373000      -3.18796000
O        4.15677000       1.31323000       1.09885000
O        6.06161000       2.83977000       0.15673000
O        6.06161000       0.00373000       2.38461000
O       -2.83693000       6.06623000       0.15673000
O       -3.57292000       3.57576000      -0.12391000
O       -0.00089000       6.06623000       2.38461000
O       -0.00089000      -3.56951000       3.27805000
O       -0.00089000      -2.46856000       5.64338000
O       -2.49137000       2.49421000      -2.90733000
O        1.54868000       4.51666000      -1.51562000
O        1.30861000       4.16139000       1.09885000
O        2.83515000       6.06623000       0.15673000
O        3.57113000       3.57576000      -0.12391000
O       -4.51382000      -1.54584000      -1.51562000
O       -4.15855000      -1.30577000       1.09885000
O       -6.06339000      -2.83230000       0.15673000
O       -3.57292000      -3.56829000      -0.12391000
O        1.90395000      -4.74927000      -4.13008000
O       -4.51382000       1.55331000      -1.51562000
O       -6.06339000       2.83977000       0.15673000
O        1.31346000      -1.31062000       3.69041000
O        4.51203000       1.55331000      -1.51562000
O        4.75211000       1.90857000      -4.13008000
O        3.22557000       0.00373000      -3.18796000
O       -1.90573000      -4.74927000      -4.13008000
O       -2.49137000      -2.48674000      -2.90733000
O        1.30861000      -4.15393000       1.09885000
O        2.83515000      -6.05877000       0.15673000
O        3.57113000      -3.56829000      -0.12391000
O       -0.00089000      -6.05877000       2.38461000
O       -0.00089000      -3.22273000      -3.18796000
O        2.48958000      -2.48674000      -2.90733000
O       -1.55047000      -4.50919000      -1.51562000
O       -1.31039000      -4.15393000       1.09885000
O       -2.83693000      -6.05877000       0.15673000
O       -0.00089000       3.57697000       3.27805000
O       -0.00089000       2.47602000       5.64338000
O        1.31346000       1.31808000       3.69041000
O        1.90395000       4.75673000      -4.13008000
O        2.48958000       2.49421000      -2.90733000
H       -5.36136000       2.15436000      -4.85876000
H        6.97433000      -3.15375000       0.31169000
H        2.65668000       0.00373000       6.60571000
H        5.35958000      -2.14690000      -4.85876000
H       -7.00976000       0.00372900       2.63915000
H       -2.65846000       0.00373000       6.60571000
H       -2.15152000       5.36420000      -4.85876000
H       -5.36136000      -2.14690000      -4.85876000
H        6.97433000       3.16121000       0.31169000
H        7.00798000       0.00373000       2.63915000
H       -3.15837000       6.97895000       0.31169000
H       -0.00089000       7.01260000       2.63915000
H       -0.00089000      -2.65383000       6.60571000
H        3.15659000       6.97895000       0.31169000
H       -6.97611000      -3.15375000       0.31169000
H        2.14974000      -5.35674000      -4.85876000
H       -6.97611000       3.16121000       0.31169000
H        5.35958000       2.15436000      -4.85876000
H       -2.15152000      -5.35674000      -4.85876000
H        3.15659000      -6.97149000       0.31169000
H       -0.00089000      -7.00513000       2.63915000
H       -3.15837000      -6.97149000       0.31169000
H       -0.00089000       2.66130000       6.60571000
H        2.14974000       5.36420000      -4.85876000
