145
Properties=species:S:1:pos:R:3 pbc="F F F"
Ba       0.00138000      -0.04846600       0.00046100
Si      -3.34961000       1.55183000       5.53624000
Al       3.75276000      -3.35277000       1.55498000
Si      -3.75276000       3.34646000      -1.55498000
Si       5.53624000       1.55183000       3.34961000
Si      -5.53624000      -1.55813000       3.34961000
Si       3.34961000      -1.55813000      -5.53624000
Si       1.55498000       3.34646000       3.75276000
Si      -1.55498000      -3.35277000      -3.75276000
Si       3.75276000      -3.35277000      -1.55498000
Si       3.34961000       1.55183000      -5.53624000
Si      -3.75276000       3.34646000       1.55498000
Si       5.53624000       1.55183000      -3.34961000
Si      -5.53624000       1.55183000      -3.34961000
Si      -3.34961000      -1.55813000       5.53624000
Si       1.55498000       3.34646000      -3.75276000
Si      -3.75276000      -3.35277000       1.55498000
Si      -1.55498000      -3.35277000       3.75276000
Si       5.53624000      -1.55813000       3.34961000
Si       3.34961000       1.55183000       5.53624000
Si      -5.53624000       1.55183000       3.34961000
Si      -3.34961000      -1.55813000      -5.53624000
Si       1.55498000      -3.35277000       3.75276000
Si       3.75276000       3.34646000      -1.55498000
Si      -1.55498000       3.34646000      -3.75276000
Si      -3.34961000       1.55183000      -5.53624000
Al      -3.75276000      -3.35277000      -1.55498000
Si       5.53624000      -1.55813000      -3.34961000
Si      -5.53624000      -1.55813000      -3.34961000
Si       1.55498000      -3.35277000      -3.75276000
Si       3.34961000      -1.55813000       5.53624000
Si       3.75276000       3.34646000       1.55498000
Si      -1.55498000       3.34646000       3.75276000
O       -6.92774000       2.35811000       3.43879000
O        1.70546000       4.73795000      -4.54789000
O        2.36126000       3.43564000      -2.36126000
O       -3.44808000      -3.07224000       0.00000000
O       -4.54789000      -4.74426000       1.70546000
O       -2.36126000      -3.44194000       2.36126000
O        0.00000000      -3.07224000       3.44808000
O       -1.70546000      -4.74426000       4.54789000
O       -2.15133000      -2.15448000      -4.64450000
O       -4.74111000      -1.70861000       4.74111000
O       -4.64450000      -2.15448000       2.15133000
O       -2.36126000      -3.44194000      -2.36126000
O        4.54789000      -4.74426000      -1.70546000
O        4.64450000      -2.15448000      -2.15133000
O        2.36126000      -3.44194000      -2.36126000
O        4.74111000       1.70231000      -4.74111000
O       -5.84092000      -0.00315000       3.06909000
O       -3.06909000      -0.00315000       5.84092000
O       -4.74111000       1.70231000       4.74111000
O        3.44808000      -3.07224000       0.00000000
O       -2.15133000       2.14818000       4.64450000
O       -3.43879000       2.35811000       6.92774000
O        4.54789000      -4.74426000       1.70546000
O        4.64450000      -2.15448000       2.15133000
O       -6.92774000       2.35811000      -3.43879000
O       -2.15133000      -2.15448000       4.64450000
O        1.70546000      -4.74426000      -4.54789000
O        3.06909000      -0.00315000      -5.84092000
O        4.74111000      -1.70861000      -4.74111000
O        2.15133000      -2.15448000      -4.64450000
O        3.43879000      -2.36442000      -6.92774000
O        0.00000000       3.06593000       3.44808000
O        1.70546000       4.73795000       4.54789000
O        2.15133000       2.14818000       4.64450000
O        2.36126000       3.43564000       2.36126000
O        0.00000000      -3.07224000      -3.44808000
O       -1.70546000      -4.74426000      -4.54789000
O        3.43879000      -2.36442000       6.92774000
O        4.54789000       4.73795000       1.70546000
O       -1.70546000       4.73795000       4.54789000
O        2.36126000      -3.44194000       2.36126000
O       -3.44808000       3.06593000       0.00000000
O       -4.54789000       4.73795000      -1.70546000
O       -4.64450000       2.14818000      -2.15133000
O       -2.36126000       3.43564000      -2.36126000
O        5.84092000      -0.00315000       3.06909000
O        4.74111000       1.70231000       4.74111000
O        4.64450000       2.14818000       2.15133000
O        6.92774000       2.35811000       3.43879000
O       -6.92774000      -2.36442000       3.43879000
O        1.70546000      -4.74426000       4.54789000
O        2.15133000      -2.15448000       4.64450000
O        3.44808000       3.06593000       0.00000000
O       -3.06909000      -0.00315000      -5.84092000
O       -4.74111000      -1.70861000      -4.74111000
O       -3.43879000      -2.36442000      -6.92774000
O        4.74111000      -1.70861000       4.74111000
O        6.92774000      -2.36442000       3.43879000
O        3.06909000      -0.00315000       5.84092000
O        3.43879000       2.35811000       6.92774000
O       -3.43879000      -2.36442000       6.92774000
O        0.00000000       3.06593000      -3.44808000
O        2.15133000       2.14818000      -4.64450000
O        3.43879000       2.35811000      -6.92774000
O       -4.54789000       4.73795000       1.70546000
O       -4.64450000       2.14818000       2.15133000
O       -2.36126000       3.43564000       2.36126000
O        5.84092000      -0.00315000      -3.06909000
O        4.64450000       2.14818000      -2.15133000
O        6.92774000       2.35811000      -3.43879000
O       -5.84092000      -0.00315000      -3.06909000
O       -4.74111000       1.70231000      -4.74111000
O        4.54789000       4.73795000      -1.70546000
O       -1.70546000       4.73795000      -4.54789000
O       -2.15133000       2.14818000      -4.64450000
O       -3.43879000       2.35811000      -6.92774000
O       -4.54789000      -4.74426000      -1.70546000
O       -4.64450000      -2.15448000      -2.15133000
O        6.92774000      -2.36442000      -3.43879000
O       -6.92774000      -2.36442000      -3.43879000
H       -7.77437000       2.84869000       3.49304000
H        1.79707000       5.58511000      -5.03198000
H       -5.03198000      -5.59141000       1.79707000
H       -1.79708000      -5.59141000       5.03198000
H        5.03198000      -5.59141000      -1.79708000
H       -3.49305000       2.84869000       7.77437000
H        5.03198000      -5.59141000       1.79707000
H       -7.77437000       2.84869000      -3.49305000
H        1.79707000      -5.59141000      -5.03198000
H        3.49304000      -2.85499000      -7.77437000
H        1.79707000       5.58511000       5.03198000
H       -1.79708000      -5.59141000      -5.03198000
H        3.49304000      -2.85499000       7.77437000
H        5.03198000       5.58511000       1.79707000
H       -1.79708000       5.58511000       5.03198000
H       -5.03198000       5.58511000      -1.79708000
H        7.77437000       2.84869000       3.49304000
H       -7.77437000      -2.85499000       3.49304000
H        1.79707000      -5.59141000       5.03198000
H       -3.49305000      -2.85499000      -7.77437000
H        7.77437000      -2.85499000       3.49304000
H        3.49304000       2.84869000       7.77437000
H       -3.49305000      -2.85499000       7.77437000
H        3.49304000       2.84869000      -7.77437000
H       -5.03198000       5.58511000       1.79707000
H        7.77437000       2.84869000      -3.49305000
H        5.03198000       5.58511000      -1.79708000
H       -1.79708000       5.58511000      -5.03198000
H       -3.49305000       2.84869000      -7.77437000
H       -5.03198000      -5.59141000      -1.79708000
H        7.77437000      -2.85499000      -3.49305000
H       -7.77437000      -2.85499000      -3.49305000
