37
Properties=species:S:1:pos:R:3 pbc="F F F"
Na       0.11507600      -0.11576400       0.11618900
Al       1.55212000      -1.55212000       1.55212000
Si      -1.54617000      -1.55212000       1.55212000
Si       1.55212000       1.54617000       1.55212000
Si      -1.54617000       1.54617000      -1.54617000
Si      -1.54617000      -1.55212000      -1.54617000
Si      -1.54617000       1.54617000       1.55212000
Si       1.55212000      -1.55212000      -1.54617000
Si       1.55212000       1.54617000      -1.54617000
O        2.47923000      -2.47923000      -2.47327000
O        1.86215000      -0.00298000      -1.85619000
O       -2.47327000       2.47327000       2.47923000
O        2.47923000      -2.47923000       2.47923000
O        1.86215000      -0.00298000       1.86214000
O       -2.47327000      -2.47923000       2.47923000
O        1.86215000      -1.86215000       0.00298000
O        0.00298000      -1.86215000       1.86214000
O       -1.85619000      -0.00298000       1.86214000
O       -1.85619000      -1.86215000       0.00298000
O        2.47923000       2.47327000       2.47923000
O        1.86215000       1.85619000       0.00298000
O        0.00298000       1.85619000       1.86214000
O       -2.47327000       2.47327000      -2.47327000
O        0.00298000       1.85619000      -1.85619000
O       -1.85619000       1.85619000       0.00298000
O       -1.85619000      -0.00298000      -1.85619000
O       -2.47327000      -2.47923000      -2.47327000
O        0.00298000      -1.86215000      -1.85619000
O        2.47923000       2.47327000      -2.47327000
H        3.04503000      -3.04503000      -3.03908000
H       -3.03908000       3.03908000       3.04503000
H        3.04503000      -3.04503000       3.04503000
H       -3.03908000      -3.04503000       3.04503000
H        3.04503000       3.03908000       3.04503000
H       -3.03908000       3.03908000      -3.03908000
H       -3.03908000      -3.04503000      -3.03908000
H        3.04503000       3.03908000      -3.03908000
