109
Properties=species:S:1:pos:R:3 pbc="F F F"
Ba       0.02345900      -0.02287600      -0.02566800
Si      -2.16471000      -0.00324000       4.06093000
Si      -1.49784000       3.75188000      -2.93484000
Si       2.31062000       4.55819000      -0.09988000
Si      -4.55819000      -2.31062000      -0.09988000
Si      -4.50484000      -0.00323400       1.96478000
Al       1.50431000      -3.75835000      -2.93484000
Si      -2.30415000      -4.56466000      -0.09988000
Si       0.00324000       2.16471000       4.06093000
Si       1.50431000       3.75188000      -2.93484000
Si      -2.30415000       4.55819000      -0.09988000
Si       0.00323700       4.50484000       1.96478000
Si       0.00324000      -2.17119000       4.06093000
Si       3.75835000       1.49784000      -2.93484000
Si      -1.49784000      -3.75835000      -2.93484000
Si       2.31062000      -4.56466000      -0.09988000
Si       0.00324000      -4.51131000       1.96478000
Si      -3.75188000      -1.50430900      -2.93484000
Si      -4.55819000       2.30415000      -0.09988000
Si      -3.75188000       1.49784000      -2.93484000
Si       4.56466000      -2.31062000      -0.09988000
Si       2.17119000      -0.00324000       4.06093000
Al       3.75835000      -1.50431000      -2.93484000
Si       4.56466000       2.30415000      -0.09988000
Si       4.51131000      -0.00324000       1.96478000
O       -4.74976000       1.90160000      -4.13183000
O        4.51616000      -1.55281000      -1.51736000
O        4.16090000      -1.31274000       1.09711000
O        6.06574000      -2.83927000       0.15498000
O        3.57647000      -0.00324000       3.27631000
O        2.47552000      -0.00324000       5.64164000
O        4.75624000      -1.90807000      -4.13183000
O       -1.30626000       4.15443000       1.09711000
O       -6.05926000      -0.00324500       2.38286000
O        1.55281000      -4.51616000      -1.51736000
O       -4.15443000       1.30626000       1.09711000
O       -3.57000000      -0.00324100       3.27631000
O       -2.46905000      -0.00324000       5.64164000
O       -1.54634000       4.50969000      -1.51736000
O       -1.31111000      -1.31759000       3.68866000
O       -1.31111000       1.31111000       3.68866000
O       -1.90160000       4.74976000      -4.13183000
O        0.00324000       3.22323000      -3.18970000
O       -4.74976000      -1.90807000      -4.13183000
O       -3.22323000      -0.00324000      -3.18970000
O        4.16090000       1.30626000       1.09711000
O        6.06574000       2.83280000       0.15498000
O        6.06574000      -0.00324000       2.38286000
O       -2.83280000       6.05926000       0.15498000
O       -3.56879000       3.56879000      -0.12565000
O        0.00324300       6.05926000       2.38286000
O        0.00324000      -3.57647000       3.27631000
O        0.00324000      -2.47552000       5.64164000
O       -2.48724000       2.48724000      -2.90907000
O        1.55281000       4.50969000      -1.51736000
O        1.31274000       4.15443000       1.09711000
O        2.83927000       6.05926000       0.15498000
O        3.57526000       3.56879000      -0.12565000
O       -4.50969000      -1.55281000      -1.51736000
O       -4.15443000      -1.31274000       1.09711000
O       -6.05926000      -2.83927000       0.15498000
O       -3.56879000      -3.57526000      -0.12565000
O        1.90807000      -4.75624000      -4.13183000
O       -4.50969000       1.54634000      -1.51736000
O       -6.05926000       2.83280000       0.15498000
O        1.31759000      -1.31759000       3.68866000
O        4.51616000       1.54634000      -1.51736000
O        4.75624000       1.90160000      -4.13183000
O        3.22970000      -0.00324000      -3.18970000
O       -1.90160000      -4.75624000      -4.13183000
O       -2.48724000      -2.49371000      -2.90907000
O        1.31274000      -4.16090000       1.09711000
O        2.83927000      -6.06574000       0.15498000
O        3.57526000      -3.57526000      -0.12565000
O        0.00324000      -6.06574000       2.38286000
O        0.00324000      -3.22970000      -3.18970000
O        2.49371000      -2.49371000      -2.90907000
O       -1.54634000      -4.51616000      -1.51736000
O       -1.30626000      -4.16090000       1.09711000
O       -2.83280000      -6.06574000       0.15498000
O        0.00324000       3.57000000       3.27631000
O        0.00324000       2.46905000       5.64164000
O        1.31759000       1.31111000       3.68866000
O        1.90807000       4.74976000      -4.13183000
O        2.49371000       2.48724000      -2.90907000
H       -5.35724000       2.14740000      -4.86050000
H        6.97846000      -3.16072000       0.30995000
H        2.66080000      -0.00324000       6.60397000
H        5.36371000      -2.15387000      -4.86050000
H       -7.00563000      -0.00323900       2.63740000
H       -2.65433000      -0.00324000       6.60397000
H       -2.14740000       5.35724000      -4.86050000
H       -5.35724000      -2.15387000      -4.86050000
H        6.97846000       3.15424000       0.30995000
H        7.01210000      -0.00324000       2.63740000
H       -3.15424000       6.97199000       0.30995000
H        0.00323900       7.00563000       2.63740000
H        0.00324000      -2.66080000       6.60397000
H        3.16072000       6.97199000       0.30995000
H       -6.97199000      -3.16072000       0.30995000
H        2.15387000      -5.36371000      -4.86050000
H       -6.97199000       3.15424000       0.30995000
H        5.36371000       2.14740000      -4.86050000
H       -2.14740000      -5.36371000      -4.86050000
H        3.16072000      -6.97846000       0.30995000
H        0.00324000      -7.01210000       2.63740000
H       -3.15424000      -6.97846000       0.30995000
H        0.00324000       2.65433000       6.60397000
H        2.15387000       5.35724000      -4.86050000
