109
Properties=species:S:1:pos:R:3 pbc="F F F"
Ba      -0.03892100      -0.00695700      -0.00170400
Si      -2.17304000      -0.00092000       4.06395000
Si      -1.50616000       3.75419000      -2.93183000
Si       2.30230000       4.56050000      -0.09686000
Si      -4.56651000      -2.30831000      -0.09686000
Al      -4.51316000      -0.00092000       1.96779000
Si       1.49599000      -3.75604000      -2.93183000
Si      -2.31247000      -4.56235000      -0.09686000
Si      -0.00509000       2.16703000       4.06395000
Si       1.49599000       3.75419000      -2.93183000
Si      -2.31247000       4.56050000      -0.09686000
Si      -0.00508900       4.50715000       1.96779000
Si      -0.00509000      -2.16887000       4.06395000
Si       3.75003000       1.50015000      -2.93183000
Si      -1.50616000      -3.75604000      -2.93183000
Si       2.30230000      -4.56235000      -0.09686000
Si      -0.00509000      -4.50900000       1.96779000
Al      -3.76020000      -1.50200000      -2.93183000
Si      -4.56651000       2.30646000      -0.09686000
Si      -3.76020000       1.50015000      -2.93183000
Si       4.55634000      -2.30831000      -0.09686000
Si       2.16286000      -0.00092000       4.06395000
Si       3.75003000      -1.50200000      -2.93183000
Si       4.55634000       2.30646000      -0.09686000
Si       4.50299000      -0.00092000       1.96779000
O       -4.75809000       1.90391000      -4.12881000
O        4.50784000      -1.55050000      -1.51434000
O        4.15258000      -1.31042000       1.10012000
O        6.05741000      -2.83696000       0.15800000
O        3.56815000      -0.00092000       3.27932000
O        2.46720000      -0.00092000       5.64466000
O        4.74791000      -1.90576000      -4.12881000
O       -1.31459000       4.15674000       1.10012000
O       -6.06759000      -0.00092000       2.38588000
O        1.54449000      -4.51385000      -1.51434000
O       -4.16275000       1.30858000       1.10012000
O       -3.57832000      -0.00092000       3.27932000
O       -2.47737000      -0.00092000       5.64466000
O       -1.55466000       4.51200000      -1.51434000
O       -1.31944000      -1.31527000       3.69168000
O       -1.31944000       1.31343000       3.69168000
O       -1.90992000       4.75208000      -4.12881000
O       -0.00509000       3.22554000      -3.18669000
O       -4.75809000      -1.90576000      -4.12881000
O       -3.23155000      -0.00092000      -3.18669000
O        4.15258000       1.30858000       1.10012000
O        6.05741000       2.83511000       0.15800000
O        6.05741000      -0.00092000       2.38588000
O       -2.84112000       6.06158000       0.15800000
O       -3.57711000       3.57110000      -0.12263000
O       -0.00509000       6.06158000       2.38588000
O       -0.00509000      -3.57416000       3.27932000
O       -0.00509000      -2.47321000       5.64466000
O       -2.49556000       2.48955000      -2.90605000
O        1.54449000       4.51200000      -1.51434000
O        1.30441000       4.15674000       1.10012000
O        2.83095000       6.06158000       0.15800000
O        3.56694000       3.57110000      -0.12263000
O       -4.51801000      -1.55050000      -1.51434000
O       -4.16275000      -1.31042000       1.10012000
O       -6.06759000      -2.83696000       0.15800000
O       -3.57711000      -3.57295000      -0.12263000
O        1.89975000      -4.75392000      -4.12881000
O       -4.51801000       1.54865000      -1.51434000
O       -6.06759000       2.83511000       0.15800000
O        1.30926000      -1.31527000       3.69168000
O        4.50784000       1.54865000      -1.51434000
O        4.74791000       1.90391000      -4.12881000
O        3.22138000      -0.00092000      -3.18669000
O       -1.90992000      -4.75392000      -4.12881000
O       -2.49556000      -2.49140000      -2.90605000
O        1.30441000      -4.15859000       1.10012000
O        2.83095000      -6.06342000       0.15800000
O        3.56694000      -3.57295000      -0.12263000
O       -0.00509000      -6.06342000       2.38588000
O       -0.00509000      -3.22739000      -3.18669000
O        2.48539000      -2.49140000      -2.90605000
O       -1.55466000      -4.51385000      -1.51434000
O       -1.31459000      -4.15859000       1.10012000
O       -2.84112000      -6.06342000       0.15800000
O       -0.00509000       3.57231000       3.27932000
O       -0.00509000       2.47136000       5.64466000
O        1.30926000       1.31343000       3.69168000
O        1.89975000       4.75208000      -4.12881000
O        2.48539000       2.48955000      -2.90605000
H       -5.36556000       2.14971000      -4.85748000
H        6.97013000      -3.15840000       0.31296000
H        2.65248000      -0.00092000       6.60698000
H        5.35538000      -2.15155000      -4.85748000
H       -7.01395000      -0.00092000       2.64042000
H       -2.66265000      -0.00092000       6.60698000
H       -2.15572000       5.35955000      -4.85748000
H       -5.36556000      -2.15155000      -4.85748000
H        6.97013000       3.15656000       0.31296000
H        7.00378000      -0.00092000       2.64042000
H       -3.16257000       6.97430000       0.31296000
H       -0.00509000       7.00794000       2.64042000
H       -0.00509000      -2.65849000       6.60698000
H        3.15239000       6.97430000       0.31296000
H       -6.98031000      -3.15840000       0.31296000
H        2.14554000      -5.36139000      -4.85748000
H       -6.98031000       3.15656000       0.31296000
H        5.35538000       2.14971000      -4.85748000
H       -2.15572000      -5.36139000      -4.85748000
H        3.15239000      -6.97614000       0.31296000
H       -0.00509000      -7.00979000       2.64042000
H       -3.16257000      -6.97614000       0.31296000
H       -0.00509000       2.65664000       6.60698000
H        2.14554000       5.35955000      -4.85748000
