145
Properties=species:S:1:pos:R:3 pbc="F F F"
Ba       0.00690600      -0.04227800      -0.00259300
Si      -3.35045000       1.55267000       5.53540000
Al       3.75192000      -3.35192000       1.55413000
Si      -3.75360000       3.34731000      -1.55582000
Si       5.53540000       1.55267000       3.34877000
Si      -5.53708000      -1.55729000       3.34877000
Si       3.34877000      -1.55729000      -5.53709000
Si       1.55414000       3.34731000       3.75191000
Si      -1.55582000      -3.35192000      -3.75360000
Si       3.75192000      -3.35192000      -1.55582000
Si       3.34877000       1.55267000      -5.53709000
Si      -3.75360000       3.34731000       1.55413000
Si       5.53540000       1.55267000      -3.35046000
Si      -5.53708000       1.55267000      -3.35046000
Si      -3.35045000      -1.55729000       5.53540000
Si       1.55414000       3.34731000      -3.75360000
Si      -3.75360000      -3.35192000       1.55413000
Si      -1.55582000      -3.35192000       3.75191000
Si       5.53540000      -1.55729000       3.34877000
Si       3.34877000       1.55267000       5.53540000
Si      -5.53708000       1.55267000       3.34877000
Si      -3.35045000      -1.55729000      -5.53709000
Si       1.55414000      -3.35192000       3.75191000
Si       3.75192000       3.34731000      -1.55582000
Si      -1.55582000       3.34731000      -3.75360000
Si      -3.35045000       1.55267000      -5.53709000
Si      -3.75360000      -3.35192000      -1.55582000
Si       5.53540000      -1.55729000      -3.35046000
Al      -5.53708000      -1.55729000      -3.35046000
Si       1.55414000      -3.35192000      -3.75360000
Si       3.34877000      -1.55729000       5.53540000
Si       3.75192000       3.34731000       1.55413000
Si      -1.55582000       3.34731000       3.75191000
O       -6.92858000       2.35896000       3.43794000
O        1.70462000       4.73880000      -4.54874000
O        2.36042000       3.43648000      -2.36211000
O       -3.44892000      -3.07139000      -0.00084000
O       -4.54873000      -4.74341000       1.70462000
O       -2.36210000      -3.44110000       2.36042000
O       -0.00084000      -3.07139000       3.44723000
O       -1.70630000      -4.74341000       4.54705000
O       -2.15217000      -2.15364000      -4.64534000
O       -4.74195000      -1.70777000       4.74026000
O       -4.64534000      -2.15364000       2.15049000
O       -2.36210000      -3.44110000      -2.36211000
O        4.54705000      -4.74341000      -1.70630000
O        4.64366000      -2.15364000      -2.15218000
O        2.36042000      -3.44110000      -2.36211000
O        4.74027000       1.70315000      -4.74195000
O       -5.84176000      -0.00231000       3.06824000
O       -3.06993000      -0.00231000       5.84008000
O       -4.74195000       1.70315000       4.74026000
O        3.44724000      -3.07139000      -0.00084000
O       -2.15217000       2.14902000       4.64366000
O       -3.43963000       2.35896000       6.92689000
O        4.54705000      -4.74341000       1.70462000
O        4.64366000      -2.15364000       2.15049000
O       -6.92858000       2.35896000      -3.43963000
O       -2.15217000      -2.15364000       4.64366000
O        1.70462000      -4.74341000      -4.54874000
O        3.06825000      -0.00231000      -5.84177000
O        4.74027000      -1.70777000      -4.74195000
O        2.15049000      -2.15364000      -4.64534000
O        3.43795000      -2.36357000      -6.92858000
O       -0.00084000       3.06678000       3.44723000
O        1.70462000       4.73880000       4.54705000
O        2.15049000       2.14902000       4.64366000
O        2.36042000       3.43648000       2.36042000
O       -0.00084000      -3.07139000      -3.44892000
O       -1.70630000      -4.74341000      -4.54874000
O        3.43795000      -2.36357000       6.92689000
O        4.54705000       4.73880000       1.70462000
O       -1.70630000       4.73880000       4.54705000
O        2.36042000      -3.44110000       2.36042000
O       -3.44892000       3.06678000      -0.00084000
O       -4.54873000       4.73880000      -1.70630000
O       -4.64534000       2.14902000      -2.15218000
O       -2.36210000       3.43648000      -2.36211000
O        5.84008000      -0.00231000       3.06824000
O        4.74027000       1.70315000       4.74026000
O        4.64366000       2.14902000       2.15049000
O        6.92690000       2.35896000       3.43794000
O       -6.92858000      -2.36357000       3.43794000
O        1.70462000      -4.74341000       4.54705000
O        2.15049000      -2.15364000       4.64366000
O        3.44724000       3.06678000      -0.00084000
O       -3.06993000      -0.00231000      -5.84177000
O       -4.74195000      -1.70777000      -4.74195000
O       -3.43963000      -2.36357000      -6.92858000
O        4.74027000      -1.70777000       4.74026000
O        6.92690000      -2.36357000       3.43794000
O        3.06825000      -0.00231000       5.84008000
O        3.43795000       2.35896000       6.92689000
O       -3.43963000      -2.36357000       6.92689000
O       -0.00084000       3.06678000      -3.44892000
O        2.15049000       2.14902000      -4.64534000
O        3.43795000       2.35896000      -6.92858000
O       -4.54873000       4.73880000       1.70462000
O       -4.64534000       2.14902000       2.15049000
O       -2.36210000       3.43648000       2.36042000
O        5.84008000      -0.00231000      -3.06993000
O        4.64366000       2.14902000      -2.15218000
O        6.92690000       2.35896000      -3.43963000
O       -5.84176000      -0.00231000      -3.06993000
O       -4.74195000       1.70315000      -4.74195000
O        4.54705000       4.73880000      -1.70630000
O       -1.70630000       4.73880000      -4.54874000
O       -2.15217000       2.14902000      -4.64534000
O       -3.43963000       2.35896000      -6.92858000
O       -4.54873000      -4.74341000      -1.70630000
O       -4.64534000      -2.15364000      -2.15218000
O        6.92690000      -2.36357000      -3.43963000
O       -6.92858000      -2.36357000      -3.43963000
H       -7.77521000       2.84953000       3.49220000
H        1.79624000       5.58595000      -5.03283000
H       -5.03282000      -5.59057000       1.79623000
H       -1.79791000      -5.59057000       5.03114000
H        5.03114000      -5.59057000      -1.79792000
H       -3.49388000       2.84953000       7.77353000
H        5.03114000      -5.59057000       1.79623000
H       -7.77521000       2.84953000      -3.49389000
H        1.79624000      -5.59057000      -5.03283000
H        3.49221000      -2.85415000      -7.77522000
H        1.79624000       5.58595000       5.03114000
H       -1.79791000      -5.59057000      -5.03283000
H        3.49221000      -2.85415000       7.77353000
H        5.03114000       5.58595000       1.79623000
H       -1.79791000       5.58595000       5.03114000
H       -5.03282000       5.58595000      -1.79792000
H        7.77353000       2.84953000       3.49220000
H       -7.77521000      -2.85415000       3.49220000
H        1.79624000      -5.59057000       5.03114000
H       -3.49388000      -2.85415000      -7.77522000
H        7.77353000      -2.85415000       3.49220000
H        3.49221000       2.84953000       7.77353000
H       -3.49388000      -2.85415000       7.77353000
H        3.49221000       2.84953000      -7.77522000
H       -5.03282000       5.58595000       1.79623000
H        7.77353000       2.84953000      -3.49389000
H        5.03114000       5.58595000      -1.79792000
H       -1.79791000       5.58595000      -5.03283000
H       -3.49388000       2.84953000      -7.77522000
H       -5.03282000      -5.59057000      -1.79792000
H        7.77353000      -2.85415000      -3.49389000
H       -7.77521000      -2.85415000      -3.49389000
