109
Properties=species:S:1:pos:R:3 pbc="F F F"
Sr       0.04082400      -0.16432700       0.07758100
Si      -2.16700000      -0.00375000       4.06531000
Si      -1.50012000       3.75136000      -2.93047000
Si       2.30834000       4.55767000      -0.09550000
Si      -4.56047000      -2.31114000      -0.09550000
Si      -4.50712000      -0.00375700       1.96915100
Al       1.50203000      -3.75886000      -2.93047000
Si      -2.30644000      -4.56518000      -0.09550000
Si       0.00095000       2.16420000       4.06531000
Si       1.50203000       3.75136000      -2.93047000
Si      -2.30644000       4.55767000      -0.09550000
Si       0.00095100       4.50432000       1.96915000
Al       0.00095000      -2.17170000       4.06531000
Si       3.75606000       1.49732000      -2.93047000
Si      -1.50012000      -3.75886000      -2.93047000
Si       2.30834000      -4.56518000      -0.09550000
Si       0.00095000      -4.51183000       1.96915000
Si      -3.75416000      -1.50483000      -2.93047000
Si      -4.56047000       2.30364000      -0.09550000
Si      -3.75416000       1.49732000      -2.93047000
Si       4.56238000      -2.31114000      -0.09550000
Si       2.16890000      -0.00375000       4.06531000
Si       3.75606000      -1.50483000      -2.93047000
Si       4.56238000       2.30364000      -0.09550000
Si       4.50903000      -0.00375000       1.96915000
O       -4.75205000       1.90109000      -4.12745000
O        4.51388000      -1.55333000      -1.51299000
O        4.15861000      -1.31325000       1.10148000
O        6.06345000      -2.83979000       0.15936000
O        3.57419000      -0.00375000       3.28068000
O        2.47324000      -0.00375000       5.64601000
O        4.75395000      -1.90859000      -4.12745000
O       -1.30855000       4.15391000       1.10148000
O       -6.06155000      -0.00374400       2.38723900
O        1.55053000      -4.51668000      -1.51299000
O       -4.15671000       1.30575000       1.10148000
O       -3.57229000      -0.00374900       3.28068000
O       -2.47134000      -0.00375000       5.64601000
O       -1.54862000       4.50917000      -1.51299000
O       -1.31340000      -1.31810000       3.69304000
O       -1.31340000       1.31060000       3.69304000
O       -1.90389000       4.74925000      -4.12745000
O        0.00095000       3.22271000      -3.18533000
O       -4.75205000      -1.90859000      -4.12745000
O       -3.22551000      -0.00375000      -3.18533000
O        4.15861000       1.30575000       1.10148000
O        6.06345000       2.83229000       0.15936000
O        6.06345000      -0.00375000       2.38724000
O       -2.83509000       6.05875000       0.15936000
O       -3.57107000       3.56827000      -0.12128000
O        0.00094900       6.05875000       2.38724000
O        0.00095000      -3.57699000       3.28068000
O        0.00095000      -2.47604000       5.64601000
O       -2.48952000       2.48672000      -2.90470000
O        1.55053000       4.50917000      -1.51299000
O        1.31045000       4.15391000       1.10148000
O        2.83699000       6.05875000       0.15936000
O        3.57298000       3.56827000      -0.12128000
O       -4.51197000      -1.55333000      -1.51299000
O       -4.15671000      -1.31325000       1.10148000
O       -6.06155000      -2.83979000       0.15936000
O       -3.57107000      -3.57578000      -0.12128000
O        1.90579000      -4.75675000      -4.12745000
O       -4.51197000       1.54582000      -1.51299000
O       -6.06155000       2.83229000       0.15936000
O        1.31530000      -1.31810000       3.69304000
O        4.51388000       1.54582000      -1.51299000
O        4.75395000       1.90109000      -4.12745000
O        3.22741000      -0.00375000      -3.18533000
O       -1.90389000      -4.75675000      -4.12745000
O       -2.48952000      -2.49423000      -2.90470000
O        1.31045000      -4.16141000       1.10148000
O        2.83699000      -6.06625000       0.15936000
O        3.57298000      -3.57578000      -0.12128000
O        0.00095000      -6.06625000       2.38724000
O        0.00095000      -3.23021000      -3.18533000
O        2.49143000      -2.49423000      -2.90470000
O       -1.54862000      -4.51668000      -1.51299000
O       -1.30855000      -4.16141000       1.10148000
O       -2.83509000      -6.06625000       0.15936000
O        0.00095000       3.56949000       3.28068000
O        0.00095000       2.46854000       5.64601000
O        1.31530000       1.31060000       3.69304000
O        1.90579000       4.74925000      -4.12745000
O        2.49143000       2.48672000      -2.90470000
H       -5.35952000       2.14688000      -4.85613000
H        6.97617000      -3.16123000       0.31432000
H        2.65852000      -0.00375000       6.60834000
H        5.36142000      -2.15438000      -4.85613000
H       -7.00792000      -0.00375100       2.64178000
H       -2.65662000      -0.00375000       6.60834000
H       -2.14968000       5.35672000      -4.85613000
H       -5.35952000      -2.15438000      -4.85613000
H        6.97617000       3.15373000       0.31432000
H        7.00982000      -0.00375000       2.64178000
H       -3.15653000       6.97147000       0.31432000
H        0.00095000       7.00512000       2.64178000
H        0.00095000      -2.66132000       6.60834000
H        3.15843000       6.97147000       0.31432000
H       -6.97427000      -3.16123000       0.31432000
H        2.15158000      -5.36422000      -4.85613000
H       -6.97427000       3.15373000       0.31432000
H        5.36142000       2.14688000      -4.85613000
H       -2.14968000      -5.36422000      -4.85613000
H        3.15843000      -6.97897000       0.31432000
H        0.00095000      -7.01262000       2.64178000
H       -3.15653000      -6.97897000       0.31432000
H        0.00095000       2.65382000       6.60834000
H        2.15158000       5.35672000      -4.85613000
