145
Properties=species:S:1:pos:R:3 pbc="F F F"
Ba      -0.03597200       0.01861000      -0.02874300
Si      -3.35296000       1.55582000       5.53291000
Si       3.74941000      -3.34877000       1.55164000
Al      -3.75610000       3.35046000      -1.55832000
Si       5.53290000       1.55582000       3.34628000
Si      -5.53959000      -1.55413000       3.34628000
Si       3.34627000      -1.55413000      -5.53958000
Si       1.55164000       3.35046000       3.74942000
Si      -1.55832000      -3.34877000      -3.75609000
Si       3.74941000      -3.34877000      -1.55832000
Si       3.34627000       1.55582000      -5.53958000
Si      -3.75610000       3.35046000       1.55164000
Si       5.53290000       1.55582000      -3.35295000
Si      -5.53959000       1.55582000      -3.35295000
Si      -3.35296000      -1.55413000       5.53291000
Si       1.55164000       3.35046000      -3.75609000
Si      -3.75610000      -3.34877000       1.55164000
Si      -1.55832000      -3.34877000       3.74942000
Si       5.53290000      -1.55413000       3.34628000
Si       3.34627000       1.55582000       5.53291000
Si      -5.53959000       1.55582000       3.34628000
Al      -3.35296000      -1.55413000      -5.53958000
Si       1.55164000      -3.34877000       3.74942000
Si       3.74941000       3.35046000      -1.55832000
Si      -1.55832000       3.35046000      -3.75609000
Si      -3.35296000       1.55582000      -5.53958000
Si      -3.75610000      -3.34877000      -1.55832000
Si       5.53290000      -1.55413000      -3.35295000
Si      -5.53959000      -1.55413000      -3.35295000
Si       1.55164000      -3.34877000      -3.75609000
Si       3.34627000      -1.55413000       5.53291000
Si       3.74941000       3.35046000       1.55164000
Si      -1.55832000       3.35046000       3.74942000
O       -6.93108000       2.36211000       3.43545000
O        1.70212000       4.74195000      -4.55123000
O        2.35792000       3.43963000      -2.36460000
O       -3.45142000      -3.06824000      -0.00334000
O       -4.55124000      -4.74026000       1.70212000
O       -2.36461000      -3.43794000       2.35793000
O       -0.00334000      -3.06824000       3.44474000
O       -1.70880000      -4.74026000       4.54456000
O       -2.15467000      -2.15049000      -4.64784000
O       -4.74445000      -1.70462000       4.73777000
O       -4.64784000      -2.15049000       2.14800000
O       -2.36461000      -3.43794000      -2.36460000
O        4.54455000      -4.74026000      -1.70880000
O        4.64116000      -2.15049000      -2.15467000
O        2.35792000      -3.43794000      -2.36460000
O        4.73776000       1.70630000      -4.74444000
O       -5.84427000       0.00084000       3.06575000
O       -3.07243000       0.00084000       5.83759000
O       -4.74445000       1.70630000       4.73777000
O        3.44473000      -3.06824000      -0.00334000
O       -2.15467000       2.15218000       4.64116000
O       -3.44213000       2.36211000       6.92440000
O        4.54455000      -4.74026000       1.70212000
O        4.64116000      -2.15049000       2.14800000
O       -6.93108000       2.36211000      -3.44212000
O       -2.15467000      -2.15049000       4.64116000
O        1.70212000      -4.74026000      -4.55123000
O        3.06574000       0.00084000      -5.84426000
O        4.73776000      -1.70462000      -4.74444000
O        2.14799000      -2.15049000      -4.64784000
O        3.43545000      -2.36042000      -6.93107000
O       -0.00334000       3.06993000       3.44474000
O        1.70212000       4.74195000       4.54456000
O        2.14799000       2.15218000       4.64116000
O        2.35792000       3.43963000       2.35793000
O       -0.00334000      -3.06824000      -3.45141000
O       -1.70880000      -4.74026000      -4.55123000
O        3.43545000      -2.36042000       6.92440000
O        4.54455000       4.74195000       1.70212000
O       -1.70880000       4.74195000       4.54456000
O        2.35792000      -3.43794000       2.35793000
O       -3.45142000       3.06993000      -0.00334000
O       -4.55124000       4.74195000      -1.70880000
O       -4.64784000       2.15218000      -2.15467000
O       -2.36461000       3.43963000      -2.36460000
O        5.83758000       0.00084000       3.06575000
O        4.73776000       1.70630000       4.73777000
O        4.64116000       2.15218000       2.14800000
O        6.92439000       2.36211000       3.43545000
O       -6.93108000      -2.36042000       3.43545000
O        1.70212000      -4.74026000       4.54456000
O        2.14799000      -2.15049000       4.64116000
O        3.44473000       3.06993000      -0.00334000
O       -3.07243000       0.00084000      -5.84426000
O       -4.74445000      -1.70462000      -4.74444000
O       -3.44213000      -2.36042000      -6.93107000
O        4.73776000      -1.70462000       4.73777000
O        6.92439000      -2.36042000       3.43545000
O        3.06574000       0.00084000       5.83759000
O        3.43545000       2.36211000       6.92440000
O       -3.44213000      -2.36042000       6.92440000
O       -0.00334000       3.06993000      -3.45141000
O        2.14799000       2.15218000      -4.64784000
O        3.43545000       2.36211000      -6.93107000
O       -4.55124000       4.74195000       1.70212000
O       -4.64784000       2.15218000       2.14800000
O       -2.36461000       3.43963000       2.35793000
O        5.83758000       0.00084000      -3.07242000
O        4.64116000       2.15218000      -2.15467000
O        6.92439000       2.36211000      -3.44212000
O       -5.84427000       0.00084000      -3.07242000
O       -4.74445000       1.70630000      -4.74444000
O        4.54455000       4.74195000      -1.70880000
O       -1.70880000       4.74195000      -4.55123000
O       -2.15467000       2.15218000      -4.64784000
O       -3.44213000       2.36211000      -6.93107000
O       -4.55124000      -4.74026000      -1.70880000
O       -4.64784000      -2.15049000      -2.15467000
O        6.92439000      -2.36042000      -3.44212000
O       -6.93108000      -2.36042000      -3.44212000
H       -7.77771000       2.85268000       3.48971000
H        1.79373000       5.58910000      -5.03532000
H       -5.03532000      -5.58741000       1.79374000
H       -1.80042000      -5.58741000       5.02864000
H        5.02864000      -5.58741000      -1.80041000
H       -3.49639000       2.85268000       7.77104000
H        5.02864000      -5.58741000       1.79374000
H       -7.77771000       2.85268000      -3.49638000
H        1.79373000      -5.58741000      -5.03532000
H        3.48970000      -2.85099000      -7.77771000
H        1.79373000       5.58910000       5.02864000
H       -1.80042000      -5.58741000      -5.03532000
H        3.48970000      -2.85099000       7.77104000
H        5.02864000       5.58910000       1.79374000
H       -1.80042000       5.58910000       5.02864000
H       -5.03532000       5.58910000      -1.80041000
H        7.77103000       2.85268000       3.48971000
H       -7.77771000      -2.85099000       3.48971000
H        1.79373000      -5.58741000       5.02864000
H       -3.49639000      -2.85099000      -7.77771000
H        7.77103000      -2.85099000       3.48971000
H        3.48970000       2.85268000       7.77104000
H       -3.49639000      -2.85099000       7.77104000
H        3.48970000       2.85268000      -7.77771000
H       -5.03532000       5.58910000       1.79374000
H        7.77103000       2.85268000      -3.49638000
H        5.02864000       5.58910000      -1.80041000
H       -1.80042000       5.58910000      -5.03532000
H       -3.49639000       2.85268000      -7.77771000
H       -5.03532000      -5.58741000      -1.80041000
H        7.77103000      -2.85099000      -3.49638000
H       -7.77771000      -2.85099000      -3.49638000
