109
Properties=species:S:1:pos:R:3 pbc="F F F"
Ba       0.02568500      -0.01065900      -0.02805900
Si      -2.16471000      -0.00139000       4.06093000
Si      -1.49784000       3.75372000      -2.93484000
Si       2.31062000       4.56004000      -0.09988000
Si      -4.55819000      -2.30878000      -0.09988000
Si      -4.50484000      -0.00138900       1.96478000
Al       1.50431000      -3.75650000      -2.93484000
Si      -2.30415000      -4.56281000      -0.09988000
Si       0.00324000       2.16656000       4.06093000
Si       1.50431000       3.75372000      -2.93484000
Si      -2.30415000       4.56004000      -0.09988000
Si       0.00324000       4.50669000       1.96478000
Si       0.00324000      -2.16934000       4.06093000
Al       3.75835000       1.49969000      -2.93484000
Si      -1.49784000      -3.75650000      -2.93484000
Si       2.31062000      -4.56281000      -0.09988000
Si       0.00324000      -4.50946000       1.96478000
Si      -3.75188000      -1.50246000      -2.93484000
Si      -4.55819000       2.30600000      -0.09988000
Si      -3.75188000       1.49969000      -2.93484000
Si       4.56466000      -2.30878000      -0.09988000
Si       2.17119000      -0.00139000       4.06093000
Si       3.75835000      -1.50246000      -2.93484000
Si       4.56466000       2.30600000      -0.09988000
Si       4.51131000      -0.00139000       1.96478000
O       -4.74976000       1.90345000      -4.13183000
O        4.51616000      -1.55096000      -1.51736000
O        4.16090000      -1.31089000       1.09711000
O        6.06574000      -2.83742000       0.15498000
O        3.57647000      -0.00139000       3.27631000
O        2.47552000      -0.00139000       5.64164000
O        4.75624000      -1.90622000      -4.13183000
O       -1.30626000       4.15627000       1.09711000
O       -6.05926000      -0.00139100       2.38286000
O        1.55281000      -4.51431000      -1.51736000
O       -4.15443000       1.30811000       1.09711000
O       -3.57000000      -0.00139000       3.27631000
O       -2.46905000      -0.00139000       5.64164000
O       -1.54634000       4.51154000      -1.51736000
O       -1.31111000      -1.31574000       3.68866000
O       -1.31111000       1.31296000       3.68866000
O       -1.90160000       4.75161000      -4.13183000
O        0.00324000       3.22508000      -3.18970000
O       -4.74976000      -1.90622000      -4.13183000
O       -3.22323000      -0.00139000      -3.18970000
O        4.16090000       1.30811000       1.09711000
O        6.06574000       2.83465000       0.15498000
O        6.06574000      -0.00139000       2.38286000
O       -2.83280000       6.06111000       0.15498000
O       -3.56879000       3.57064000      -0.12565000
O        0.00324000       6.06111000       2.38286000
O        0.00324000      -3.57463000       3.27631000
O        0.00324000      -2.47368000       5.64164000
O       -2.48724000       2.48909000      -2.90907000
O        1.55281000       4.51154000      -1.51736000
O        1.31274000       4.15627000       1.09711000
O        2.83927000       6.06111000       0.15498000
O        3.57526000       3.57064000      -0.12565000
O       -4.50969000      -1.55096000      -1.51736000
O       -4.15443000      -1.31089000       1.09711000
O       -6.05926000      -2.83742000       0.15498000
O       -3.56879000      -3.57341000      -0.12565000
O        1.90807000      -4.75439000      -4.13183000
O       -4.50969000       1.54819000      -1.51736000
O       -6.05926000       2.83465000       0.15498000
O        1.31759000      -1.31574000       3.68866000
O        4.51616000       1.54819000      -1.51736000
O        4.75624000       1.90345000      -4.13183000
O        3.22970000      -0.00139000      -3.18970000
O       -1.90160000      -4.75439000      -4.13183000
O       -2.48724000      -2.49186000      -2.90907000
O        1.31274000      -4.15905000       1.09711000
O        2.83927000      -6.06389000       0.15498000
O        3.57526000      -3.57341000      -0.12565000
O        0.00324000      -6.06389000       2.38286000
O        0.00324000      -3.22785000      -3.18970000
O        2.49371000      -2.49186000      -2.90907000
O       -1.54634000      -4.51431000      -1.51736000
O       -1.30626000      -4.15905000       1.09711000
O       -2.83280000      -6.06389000       0.15498000
O        0.00324000       3.57185000       3.27631000
O        0.00324000       2.47090000       5.64164000
O        1.31759000       1.31296000       3.68866000
O        1.90807000       4.75161000      -4.13183000
O        2.49371000       2.48909000      -2.90907000
H       -5.35724000       2.14924000      -4.86050000
H        6.97846000      -3.15887000       0.30995000
H        2.66080000      -0.00139000       6.60397000
H        5.36371000      -2.15202000      -4.86050000
H       -7.00563000      -0.00139000       2.63740000
H       -2.65433000      -0.00139000       6.60397000
H       -2.14740000       5.35908000      -4.86050000
H       -5.35724000      -2.15202000      -4.86050000
H        6.97846000       3.15609000       0.30995000
H        7.01210000      -0.00139000       2.63740000
H       -3.15424000       6.97383000       0.30995000
H        0.00324000       7.00748000       2.63740000
H        0.00324000      -2.65895000       6.60397000
H        3.16072000       6.97383000       0.30995000
H       -6.97199000      -3.15887000       0.30995000
H        2.15387000      -5.36186000      -4.86050000
H       -6.97199000       3.15609000       0.30995000
H        5.36371000       2.14924000      -4.86050000
H       -2.14740000      -5.36186000      -4.86050000
H        3.16072000      -6.97661000       0.30995000
H        0.00324000      -7.01025000       2.63740000
H       -3.15424000      -6.97661000       0.30995000
H        0.00324000       2.65618000       6.60397000
H        2.15387000       5.35908000      -4.86050000
