37
Properties=species:S:1:pos:R:3 pbc="F F F"
Ba       0.09428800       0.00000100       0.09422100
Al       1.55411800      -1.54911600       1.55411800
Si      -1.54416900      -1.54914000       1.55410600
Al       1.55411800       1.54911600       1.55411800
Si      -1.54417300       1.54913400      -1.54417200
Si      -1.54417300      -1.54913400      -1.54417200
Si      -1.54416900       1.54914000       1.55410600
Si       1.55410600      -1.54914000      -1.54416900
Si       1.55410600       1.54914000      -1.54416900
O        2.48122200      -2.47624800      -2.47128100
O        1.86414200       0.00000000      -1.85420000
O       -2.47128100       2.47624800       2.48122200
O        2.48121800      -2.47625400       2.48121800
O        1.86413900       0.00000000       1.86413900
O       -2.47128100      -2.47624800       2.48122200
O        1.86413400      -1.85917800       0.00496900
O        0.00496900      -1.85917800       1.86413400
O       -1.85420000       0.00000000       1.86414200
O       -1.85419900      -1.85917300       0.00497100
O        2.48121800       2.47625400       2.48121800
O        1.86413400       1.85917800       0.00496900
O        0.00496900       1.85917800       1.86413400
O       -2.47127700       2.47625300      -2.47128000
O        0.00497100       1.85917300      -1.85419800
O       -1.85419900       1.85917300       0.00497100
O       -1.85420000       0.00000000      -1.85419900
O       -2.47127700      -2.47625300      -2.47128000
O        0.00497100      -1.85917300      -1.85419800
O        2.48122200       2.47624800      -2.47128100
H        3.04702900      -3.04205100      -3.03708000
H       -3.03708000       3.04205100       3.04702900
H        3.04703000      -3.04205000       3.04703000
H       -3.03708000      -3.04205100       3.04702900
H        3.04703000       3.04205000       3.04703000
H       -3.03708200       3.04204800      -3.03708000
H       -3.03708200      -3.04204800      -3.03708000
H        3.04702900       3.04205100      -3.03708000
