55
Properties=species:S:1:pos:R:3 pbc="F F F"
Cs       0.05479800       0.00126500      -0.12818900
Al       1.54180000       0.46573000      -3.08144000
Si      -3.09881000      -1.20722000      -0.96723000
Si       1.54454000       2.88628000      -1.12445000
Si      -1.53826000      -0.46466000       3.07436000
Si       3.10235000       1.20829000       0.96016000
Si       3.10235000      -1.20722000      -0.96723000
Si      -1.53826000       0.46573000      -3.08144000
Si       1.54454000      -2.88521000       1.11738000
Si      -3.09881000       1.20829000       0.96016000
Si       1.54180000      -0.46466000       3.07436000
Si      -1.54100000       2.88628000      -1.12445000
Si      -1.54100000      -2.88521000       1.11738000
O        3.55232000       0.00053000      -0.00354000
O        2.00545000      -2.11492000      -0.21810000
O        4.38662000       2.10842000       1.32640000
O        0.00177000       0.00558000      -2.98895000
O        1.98357000       0.55272000      -4.62779000
O       -2.46556000      -0.60838000      -2.32121000
O        1.71413000       1.91049000      -2.39520000
O        2.46910000      -0.60838000      -2.32121000
O       -2.00191000      -2.11492000      -0.21810000
O       -4.38308000      -2.10736000      -1.33347000
O       -3.54878000       0.00053000      -0.00354000
O        2.00545000       2.11599000       0.21103000
O        0.00177000       3.32374000      -0.98758000
O        2.45542000       4.19614000      -1.33347000
O        0.00177000      -0.00451000       2.98188000
O       -1.98003000      -0.55165000       4.62071000
O       -1.71059000      -1.90943000       2.38813000
O       -2.46556000       0.60945000       2.31414000
O        2.46910000       0.60945000       2.31414000
O        4.38662000      -2.10736000      -1.33347000
O       -1.98003000       0.55272000      -4.62779000
O       -1.71059000       1.91049000      -2.39520000
O        1.71413000      -1.90943000       2.38813000
O        0.00177000      -3.32267000       0.98050000
O        2.45542000      -4.19508000       1.32640000
O       -2.00191000       2.11599000       0.21103000
O       -4.38308000       2.10842000       1.32640000
O        1.98357000      -0.55165000       4.62071000
O       -2.45188000       4.19614000      -1.33347000
O       -2.45188000      -4.19508000       1.32640000
H        5.16810000       2.65616000       1.54926000
H        2.25237000       0.60565000      -5.56871000
H       -5.16456000      -2.65509000      -1.55633000
H        3.01019000       4.99391000      -1.46077000
H       -2.24884000      -0.60458000       5.56164000
H        5.16810000      -2.65509000      -1.55633000
H       -2.24884000       0.60565000      -5.56871000
H        3.01019000      -4.99284000       1.45370000
H       -5.16456000       2.65616000       1.54926000
H        2.25237000      -0.60458000       5.56164000
H       -3.00665000       4.99391000      -1.46077000
H       -3.00665000      -4.99284000       1.45370000
