109
Properties=species:S:1:pos:R:3 pbc="F F F"
Sr       0.00010700       0.01658000      -0.03302600
Si      -2.16795000       0.00190000       4.06088000
Si      -1.50108000       3.75701000      -2.93490000
Si       2.30739000       4.56333000      -0.09993000
Si      -4.56143000      -2.30549000      -0.09993000
Si      -4.50808000       0.00189300       1.96472000
Si       1.50107000      -3.75321000      -2.93490000
Si      -2.30739000      -4.55952000      -0.09993000
Si       0.00000000       2.16985000       4.06088000
Si       1.50107000       3.75701000      -2.93490000
Si      -2.30739000       4.56333000      -0.09993000
Si       0.00000000       4.50998000       1.96472000
Si       0.00000000      -2.16605000       4.06088000
Al       3.75511000       1.50298000      -2.93490000
Si      -1.50108000      -3.75321000      -2.93490000
Si       2.30739000      -4.55952000      -0.09993000
Si       0.00000000      -4.50617000       1.96472000
Si      -3.75511000      -1.49917000      -2.93490000
Si      -4.56143000       2.30929000      -0.09993000
Al      -3.75511000       1.50298000      -2.93490000
Si       4.56142000      -2.30549000      -0.09993000
Si       2.16795000       0.00190000       4.06088000
Si       3.75511000      -1.49917000      -2.93490000
Si       4.56142000       2.30929000      -0.09993000
Si       4.50807000       0.00190000       1.96472000
O       -4.75300000       1.90674000      -4.13188000
O        4.51292000      -1.54767000      -1.51742000
O        4.15766000      -1.30760000       1.09705000
O        6.06250000      -2.83414000       0.15493000
O        3.57324000       0.00190000       3.27625000
O        2.47229000       0.00190000       5.64158000
O        4.75300000      -1.90294000      -4.13188000
O       -1.30950000       4.15956000       1.09705000
O       -6.06250000       0.00190600       2.38281000
O        1.54957000      -4.51102000      -1.51742000
O       -4.15766000       1.31140000       1.09705000
O       -3.57324000       0.00190100       3.27625000
O       -2.47229000       0.00190000       5.64158000
O       -1.54958000       4.51483000      -1.51742000
O       -1.31435000      -1.31245000       3.68861000
O       -1.31435000       1.31625000       3.68861000
O       -1.90484000       4.75490000      -4.13188000
O        0.00000000       3.22836000      -3.18976000
O       -4.75300000      -1.90294000      -4.13188000
O       -3.22646000       0.00190000      -3.18976000
O        4.15766000       1.31140000       1.09705000
O        6.06250000       2.83794000       0.15493000
O        6.06250000       0.00190000       2.38281000
O       -2.83604000       6.06440000       0.15493000
O       -3.57203000       3.57393000      -0.12571000
O        0.00000000       6.06440000       2.38281000
O        0.00000000      -3.57134000       3.27625000
O        0.00000000      -2.47039000       5.64158000
O       -2.49048000       2.49238000      -2.90913000
O        1.54957000       4.51483000      -1.51742000
O        1.30950000       4.15956000       1.09705000
O        2.83604000       6.06440000       0.15493000
O        3.57202000       3.57393000      -0.12571000
O       -4.51293000      -1.54767000      -1.51742000
O       -4.15766000      -1.30760000       1.09705000
O       -6.06250000      -2.83414000       0.15493000
O       -3.57203000      -3.57012000      -0.12571000
O        1.90484000      -4.75110000      -4.13188000
O       -4.51293000       1.55148000      -1.51742000
O       -6.06250000       2.83794000       0.15493000
O        1.31435000      -1.31245000       3.68861000
O        4.51292000       1.55148000      -1.51742000
O        4.75300000       1.90674000      -4.13188000
O        3.22646000       0.00190000      -3.18976000
O       -1.90484000      -4.75110000      -4.13188000
O       -2.49048000      -2.48857000      -2.90913000
O        1.30950000      -4.15576000       1.09705000
O        2.83604000      -6.06060000       0.15493000
O        3.57202000      -3.57012000      -0.12571000
O        0.00000000      -6.06060000       2.38281000
O        0.00000000      -3.22456000      -3.18976000
O        2.49047000      -2.48857000      -2.90913000
O       -1.54958000      -4.51102000      -1.51742000
O       -1.30950000      -4.15576000       1.09705000
O       -2.83604000      -6.06060000       0.15493000
O        0.00000000       3.57514000       3.27625000
O        0.00000000       2.47419000       5.64158000
O        1.31435000       1.31625000       3.68861000
O        1.90484000       4.75490000      -4.13188000
O        2.49047000       2.49238000      -2.90913000
H       -5.36047000       2.15253000      -4.86056000
H        6.97522000      -3.15558000       0.30989000
H        2.65757000       0.00190000       6.60391000
H        5.36047000      -2.14873000      -4.86056000
H       -7.00887000       0.00189900       2.63735000
H       -2.65757000       0.00190000       6.60391000
H       -2.15063000       5.36237000      -4.86056000
H       -5.36047000      -2.14873000      -4.86056000
H        6.97522000       3.15938000       0.30989000
H        7.00887000       0.00190000       2.63735000
H       -3.15748000       6.97712000       0.30989000
H        0.00000000       7.01077000       2.63735000
H        0.00000000      -2.65567000       6.60391000
H        3.15748000       6.97712000       0.30989000
H       -6.97522000      -3.15558000       0.30989000
H        2.15063000      -5.35857000      -4.86056000
H       -6.97522000       3.15938000       0.30989000
H        5.36047000       2.15253000      -4.86056000
H       -2.15063000      -5.35857000      -4.86056000
H        3.15748000      -6.97332000       0.30989000
H        0.00000000      -7.00697000       2.63735000
H       -3.15748000      -6.97332000       0.30989000
H        0.00000000       2.65947000       6.60391000
H        2.15063000       5.36237000      -4.86056000
