37
Properties=species:S:1:pos:R:3 pbc="F F F"
Rb       0.02831000      -0.02831500       0.02835200
Al       1.55183000      -1.55183000       1.55183000
Si      -1.54646000      -1.55183000       1.55183000
Si       1.55183000       1.54646000       1.55183000
Si      -1.54646000       1.54646000      -1.54646000
Si      -1.54646000      -1.55183000      -1.54646000
Si      -1.54646000       1.54646000       1.55183000
Si       1.55183000      -1.55183000      -1.54646000
Si       1.55183000       1.54646000      -1.54646000
O        2.47893000      -2.47893000      -2.47357000
O        1.86185000      -0.00268000      -1.85648000
O       -2.47357000       2.47357000       2.47893000
O        2.47893000      -2.47893000       2.47893000
O        1.86185000      -0.00268000       1.86185000
O       -2.47357000      -2.47893000       2.47893000
O        1.86185000      -1.86185000       0.00268000
O        0.00268000      -1.86185000       1.86185000
O       -1.85648000      -0.00268000       1.86185000
O       -1.85648000      -1.86185000       0.00268000
O        2.47893000       2.47357000       2.47893000
O        1.86185000       1.85648000       0.00268000
O        0.00268000       1.85648000       1.86185000
O       -2.47357000       2.47357000      -2.47357000
O        0.00268000       1.85648000      -1.85648000
O       -1.85648000       1.85648000       0.00268000
O       -1.85648000      -0.00268000      -1.85648000
O       -2.47357000      -2.47893000      -2.47357000
O        0.00268000      -1.86185000      -1.85648000
O        2.47893000       2.47357000      -2.47357000
H        3.04474000      -3.04474000      -3.03937000
H       -3.03937000       3.03937000       3.04474000
H        3.04474000      -3.04474000       3.04474000
H       -3.03937000      -3.04474000       3.04474000
H        3.04474000       3.03937000       3.04474000
H       -3.03937000       3.03937000      -3.03937000
H       -3.03937000      -3.04474000      -3.03937000
H        3.04474000       3.03937000      -3.03937000
