55
Properties=species:S:1:pos:R:3 pbc="F F F"
Ba      -0.00000200      -0.00000100       0.00000200
Si       1.54003000       0.46520000      -3.07790000
Al      -3.10058000      -1.20775000      -0.96369000
Si       1.54277000       2.88574000      -1.12092000
Si      -1.54003000      -0.46520000       3.07790000
Al       3.10058000       1.20775000       0.96369000
Si       3.10058000      -1.20775000      -0.96369000
Si      -1.54003000       0.46520000      -3.07790000
Si       1.54277000      -2.88574000       1.12092000
Si      -3.10058000       1.20775000       0.96369000
Si       1.54003000      -0.46520000       3.07790000
Si      -1.54277000       2.88574000      -1.12092000
Si      -1.54277000      -2.88574000       1.12092000
O        3.55055000       0.00000000       0.00000000
O        2.00368000      -2.11545000      -0.21456000
O        4.38485000       2.10789000       1.32993000
O        0.00000000       0.00504000      -2.98542000
O        1.98180000       0.55219000      -4.62425000
O       -2.46733000      -0.60892000      -2.31767000
O        1.71236000       1.90996000      -2.39166000
O        2.46733000      -0.60892000      -2.31767000
O       -2.00368000      -2.11545000      -0.21456000
O       -4.38485000      -2.10789000      -1.32993000
O       -3.55055000       0.00000000       0.00000000
O        2.00368000       2.11546000       0.21457000
O        0.00000000       3.32321000      -0.98404000
O        2.45365000       4.19561000      -1.32993000
O        0.00000000      -0.00504000       2.98542000
O       -1.98180000      -0.55219000       4.62425000
O       -1.71236000      -1.90996000       2.39166000
O       -2.46733000       0.60892000       2.31767000
O        2.46733000       0.60892000       2.31767000
O        4.38485000      -2.10789000      -1.32993000
O       -1.98180000       0.55219000      -4.62425000
O       -1.71236000       1.90996000      -2.39166000
O        1.71236000      -1.90996000       2.39166000
O        0.00000000      -3.32320000       0.98404000
O        2.45365000      -4.19561000       1.32993000
O       -2.00368000       2.11546000       0.21457000
O       -4.38485000       2.10789000       1.32993000
O        1.98180000      -0.55219000       4.62425000
O       -2.45365000       4.19561000      -1.32993000
O       -2.45365000      -4.19561000       1.32993000
H        5.16633000       2.65563000       1.55279000
H        2.25060000       0.60512000      -5.56518000
H       -5.16633000      -2.65563000      -1.55279000
H        3.00842000       4.99337000      -1.45723000
H       -2.25061000      -0.60512000       5.56518000
H        5.16633000      -2.65563000      -1.55279000
H       -2.25061000       0.60512000      -5.56518000
H        3.00842000      -4.99337000       1.45723000
H       -5.16633000       2.65563000       1.55279000
H        2.25060000      -0.60512000       5.56518000
H       -3.00842000       4.99337000      -1.45723000
H       -3.00842000      -4.99337000       1.45723000
