145
Properties=species:S:1:pos:R:3 pbc="F F F"
Sr       0.02944700       0.03294800      -0.01220200
Si      -3.34620000       1.55734000       5.53605000
Si       3.75617000      -3.34726000       1.55479000
Si      -3.74935000       3.35197000      -1.55517000
Al       5.53965000       1.55734000       3.34942000
Si      -5.53283000      -1.55262000       3.34942000
Si       3.35302000      -1.55262000      -5.53644000
Si       1.55839000       3.35197000       3.75256000
Si      -1.55157000      -3.34726000      -3.75295000
Si       3.75617000      -3.34726000      -1.55517000
Si       3.35302000       1.55734000      -5.53644000
Si      -3.74935000       3.35197000       1.55479000
Si       5.53965000       1.55734000      -3.34981000
Si      -5.53283000       1.55734000      -3.34981000
Si      -3.34620000      -1.55262000       5.53605000
Al       1.55839000       3.35197000      -3.75295000
Si      -3.74935000      -3.34726000       1.55479000
Si      -1.55157000      -3.34726000       3.75256000
Si       5.53965000      -1.55262000       3.34942000
Si       3.35302000       1.55734000       5.53605000
Si      -5.53283000       1.55734000       3.34942000
Si      -3.34620000      -1.55262000      -5.53644000
Si       1.55839000      -3.34726000       3.75256000
Si       3.75617000       3.35197000      -1.55517000
Si      -1.55157000       3.35197000      -3.75295000
Si      -3.34620000       1.55734000      -5.53644000
Si      -3.74935000      -3.34726000      -1.55517000
Si       5.53965000      -1.55262000      -3.34981000
Si      -5.53283000      -1.55262000      -3.34981000
Si       1.55839000      -3.34726000      -3.75295000
Si       3.35302000      -1.55262000       5.53605000
Si       3.75617000       3.35197000       1.55479000
Si      -1.55157000       3.35197000       3.75256000
O       -6.92433000       2.36362000       3.43859000
O        1.70887000       4.74346000      -4.54809000
O        2.36467000       3.44115000      -2.36146000
O       -3.44467000      -3.06673000      -0.00019000
O       -4.54448000      -4.73875000       1.70527000
O       -2.35785000      -3.43643000       2.36107000
O        0.00341000      -3.06673000       3.44788000
O       -1.70205000      -4.73875000       4.54770000
O       -2.14792000      -2.14897000      -4.64469000
O       -4.73770000      -1.70310000       4.74091000
O       -4.64109000      -2.14897000       2.15114000
O       -2.35785000      -3.43643000      -2.36146000
O        4.55130000      -4.73875000      -1.70565000
O        4.64791000      -2.14897000      -2.15153000
O        2.36467000      -3.43643000      -2.36146000
O        4.74452000       1.70782000      -4.74130000
O       -5.83751000       0.00236000       3.06889000
O       -3.06568000       0.00236000       5.84073000
O       -4.73770000       1.70782000       4.74091000
O        3.45149000      -3.06673000      -0.00019000
O       -2.14792000       2.15369000       4.64431000
O       -3.43538000       2.36362000       6.92754000
O        4.55130000      -4.73875000       1.70527000
O        4.64791000      -2.14897000       2.15114000
O       -6.92433000       2.36362000      -3.43898000
O       -2.14792000      -2.14897000       4.64431000
O        1.70887000      -4.73875000      -4.54809000
O        3.07250000       0.00236000      -5.84112000
O        4.74452000      -1.70310000      -4.74130000
O        2.15474000      -2.14897000      -4.64469000
O        3.44220000      -2.35891000      -6.92793000
O        0.00341000       3.07144000       3.44788000
O        1.70887000       4.74346000       4.54770000
O        2.15474000       2.15369000       4.64431000
O        2.36467000       3.44115000       2.36107000
O        0.00341000      -3.06673000      -3.44827000
O       -1.70205000      -4.73875000      -4.54809000
O        3.44220000      -2.35891000       6.92754000
O        4.55130000       4.74346000       1.70527000
O       -1.70205000       4.74346000       4.54770000
O        2.36467000      -3.43643000       2.36107000
O       -3.44467000       3.07144000      -0.00019000
O       -4.54448000       4.74346000      -1.70565000
O       -4.64109000       2.15369000      -2.15153000
O       -2.35785000       3.44115000      -2.36146000
O        5.84433000       0.00236000       3.06889000
O        4.74452000       1.70782000       4.74091000
O        4.64791000       2.15369000       2.15114000
O        6.93115000       2.36362000       3.43859000
O       -6.92433000      -2.35891000       3.43859000
O        1.70887000      -4.73875000       4.54770000
O        2.15474000      -2.14897000       4.64431000
O        3.45149000       3.07144000      -0.00019000
O       -3.06568000       0.00236000      -5.84112000
O       -4.73770000      -1.70310000      -4.74130000
O       -3.43538000      -2.35891000      -6.92793000
O        4.74452000      -1.70310000       4.74091000
O        6.93115000      -2.35891000       3.43859000
O        3.07250000       0.00236000       5.84073000
O        3.44220000       2.36362000       6.92754000
O       -3.43538000      -2.35891000       6.92754000
O        0.00341000       3.07144000      -3.44827000
O        2.15474000       2.15369000      -4.64469000
O        3.44220000       2.36362000      -6.92793000
O       -4.54448000       4.74346000       1.70527000
O       -4.64109000       2.15369000       2.15114000
O       -2.35785000       3.44115000       2.36107000
O        5.84433000       0.00236000      -3.06928000
O        4.64791000       2.15369000      -2.15153000
O        6.93115000       2.36362000      -3.43898000
O       -5.83751000       0.00236000      -3.06928000
O       -4.73770000       1.70782000      -4.74130000
O        4.55130000       4.74346000      -1.70565000
O       -1.70205000       4.74346000      -4.54809000
O       -2.14792000       2.15369000      -4.64469000
O       -3.43538000       2.36362000      -6.92793000
O       -4.54448000      -4.73875000      -1.70565000
O       -4.64109000      -2.14897000      -2.15153000
O        6.93115000      -2.35891000      -3.43898000
O       -6.92433000      -2.35891000      -3.43898000
H       -7.77096000       2.85420000       3.49285000
H        1.80048000       5.59062000      -5.03217000
H       -5.02857000      -5.58590000       1.79688000
H       -1.79367000      -5.58590000       5.03179000
H        5.03539000      -5.58590000      -1.79727000
H       -3.48964000       2.85420000       7.77418000
H        5.03539000      -5.58590000       1.79688000
H       -7.77096000       2.85420000      -3.49324000
H        1.80048000      -5.58590000      -5.03217000
H        3.49645000      -2.84948000      -7.77457000
H        1.80048000       5.59062000       5.03179000
H       -1.79367000      -5.58590000      -5.03217000
H        3.49645000      -2.84948000       7.77418000
H        5.03539000       5.59062000       1.79688000
H       -1.79367000       5.59062000       5.03179000
H       -5.02857000       5.59062000      -1.79727000
H        7.77778000       2.85420000       3.49285000
H       -7.77096000      -2.84948000       3.49285000
H        1.80048000      -5.58590000       5.03179000
H       -3.48964000      -2.84948000      -7.77457000
H        7.77778000      -2.84948000       3.49285000
H        3.49645000       2.85420000       7.77418000
H       -3.48964000      -2.84948000       7.77418000
H        3.49645000       2.85420000      -7.77457000
H       -5.02857000       5.59062000       1.79688000
H        7.77778000       2.85420000      -3.49324000
H        5.03539000       5.59062000      -1.79727000
H       -1.79367000       5.59062000      -5.03217000
H       -3.48964000       2.85420000      -7.77457000
H       -5.02857000      -5.58590000      -1.79727000
H        7.77778000      -2.84948000      -3.49324000
H       -7.77096000      -2.84948000      -3.49324000
