37
Properties=species:S:1:pos:R:3 pbc="F F F"
Sr       0.12552400      -0.00105100       0.12601300
Al       1.55450000      -1.54914000       1.55450000
Si      -1.54378000      -1.54914000       1.55450000
Al       1.55450000       1.54914000       1.55450000
Si      -1.54378000       1.54914000      -1.54378000
Si      -1.54378000      -1.54914000      -1.54378000
Si      -1.54378000       1.54914000       1.55450000
Si       1.55450000      -1.54914000      -1.54378000
Si       1.55450000       1.54914000      -1.54378000
O        2.48161000      -2.47625000      -2.47089000
O        1.86453000       0.00000000      -1.85381000
O       -2.47089000       2.47625000       2.48161000
O        2.48161000      -2.47625000       2.48161000
O        1.86453000       0.00000000       1.86453000
O       -2.47089000      -2.47625000       2.48161000
O        1.86453000      -1.85917000       0.00536000
O        0.00536000      -1.85917000       1.86453000
O       -1.85381000       0.00000000       1.86453000
O       -1.85381000      -1.85917000       0.00536000
O        2.48161000       2.47625000       2.48161000
O        1.86453000       1.85917000       0.00536000
O        0.00536000       1.85917000       1.86453000
O       -2.47089000       2.47625000      -2.47089000
O        0.00536000       1.85917000      -1.85381000
O       -1.85381000       1.85917000       0.00536000
O       -1.85381000       0.00000000      -1.85381000
O       -2.47089000      -2.47625000      -2.47089000
O        0.00536000      -1.85917000      -1.85381000
O        2.48161000       2.47625000      -2.47089000
H        3.04741000      -3.04205000      -3.03669000
H       -3.03669000       3.04205000       3.04741000
H        3.04741000      -3.04205000       3.04741000
H       -3.03669000      -3.04205000       3.04741000
H        3.04741000       3.04205000       3.04741000
H       -3.03669000       3.04205000      -3.03669000
H       -3.03669000      -3.04205000      -3.03669000
H        3.04741000       3.04205000      -3.03669000
