145
Properties=species:S:1:pos:R:3 pbc="F F F"
Ba      -0.04358100      -0.01586200      -0.00008400
Si      -3.35482000       1.55352000       5.53624000
Si       3.74755000      -3.35108000       1.55498000
Si      -3.75797000       3.34815000      -1.55498000
Si       5.53103000       1.55352000       3.34961000
Al      -5.54145000      -1.55644000       3.34961000
Si       3.34440000      -1.55644000      -5.53624000
Si       1.54977000       3.34815000       3.75276000
Si      -1.56019000      -3.35108000      -3.75276000
Si       3.74755000      -3.35108000      -1.55498000
Si       3.34440000       1.55352000      -5.53624000
Si      -3.75797000       3.34815000       1.55498000
Si       5.53103000       1.55352000      -3.34961000
Si      -5.54145000       1.55352000      -3.34961000
Si      -3.35482000      -1.55644000       5.53624000
Si       1.54977000       3.34815000      -3.75276000
Si      -3.75797000      -3.35108000       1.55498000
Si      -1.56019000      -3.35108000       3.75276000
Si       5.53103000      -1.55644000       3.34961000
Si       3.34440000       1.55352000       5.53624000
Si      -5.54145000       1.55352000       3.34961000
Si      -3.35482000      -1.55644000      -5.53624000
Si       1.54977000      -3.35108000       3.75276000
Si       3.74755000       3.34815000      -1.55498000
Si      -1.56019000       3.34815000      -3.75276000
Si      -3.35482000       1.55352000      -5.53624000
Si      -3.75797000      -3.35108000      -1.55498000
Si       5.53103000      -1.55644000      -3.34961000
Al      -5.54145000      -1.55644000      -3.34961000
Si       1.54977000      -3.35108000      -3.75276000
Si       3.34440000      -1.55644000       5.53624000
Si       3.74755000       3.34815000       1.55498000
Si      -1.56019000       3.34815000       3.75276000
O       -6.93295000       2.35980000       3.43879000
O        1.70025000       4.73964000      -4.54789000
O        2.35605000       3.43732000      -2.36126000
O       -3.45329000      -3.07055000       0.00000000
O       -4.55310000      -4.74257000       1.70546000
O       -2.36647000      -3.44025000       2.36126000
O       -0.00521000      -3.07055000       3.44808000
O       -1.71067000      -4.74257000       4.54789000
O       -2.15654000      -2.15280000      -4.64450000
O       -4.74632000      -1.70692000       4.74111000
O       -4.64971000      -2.15280000       2.15133000
O       -2.36647000      -3.44025000      -2.36126000
O        4.54268000      -4.74257000      -1.70546000
O        4.63929000      -2.15280000      -2.15133000
O        2.35605000      -3.44025000      -2.36126000
O        4.73590000       1.70400000      -4.74111000
O       -5.84613000      -0.00146000       3.06909000
O       -3.07430000      -0.00146000       5.84092000
O       -4.74632000       1.70400000       4.74111000
O        3.44287000      -3.07055000       0.00000000
O       -2.15654000       2.14987000       4.64450000
O       -3.44400000       2.35980000       6.92774000
O        4.54268000      -4.74257000       1.70546000
O        4.63929000      -2.15280000       2.15133000
O       -6.93295000       2.35980000      -3.43879000
O       -2.15654000      -2.15280000       4.64450000
O        1.70025000      -4.74257000      -4.54789000
O        3.06388000      -0.00146000      -5.84092000
O        4.73590000      -1.70692000      -4.74111000
O        2.14612000      -2.15280000      -4.64450000
O        3.43358000      -2.36273000      -6.92774000
O       -0.00521000       3.06762000       3.44808000
O        1.70025000       4.73964000       4.54789000
O        2.14612000       2.14987000       4.64450000
O        2.35605000       3.43732000       2.36126000
O       -0.00521000      -3.07055000      -3.44808000
O       -1.71067000      -4.74257000      -4.54789000
O        3.43358000      -2.36273000       6.92774000
O        4.54268000       4.73964000       1.70546000
O       -1.71067000       4.73964000       4.54789000
O        2.35605000      -3.44025000       2.36126000
O       -3.45329000       3.06762000       0.00000000
O       -4.55310000       4.73964000      -1.70546000
O       -4.64971000       2.14987000      -2.15133000
O       -2.36647000       3.43732000      -2.36126000
O        5.83571000      -0.00146000       3.06909000
O        4.73590000       1.70400000       4.74111000
O        4.63929000       2.14987000       2.15133000
O        6.92253000       2.35980000       3.43879000
O       -6.93295000      -2.36273000       3.43879000
O        1.70025000      -4.74257000       4.54789000
O        2.14612000      -2.15280000       4.64450000
O        3.44287000       3.06762000       0.00000000
O       -3.07430000      -0.00146000      -5.84092000
O       -4.74632000      -1.70692000      -4.74111000
O       -3.44400000      -2.36273000      -6.92774000
O        4.73590000      -1.70692000       4.74111000
O        6.92253000      -2.36273000       3.43879000
O        3.06388000      -0.00146000       5.84092000
O        3.43358000       2.35980000       6.92774000
O       -3.44400000      -2.36273000       6.92774000
O       -0.00521000       3.06762000      -3.44808000
O        2.14612000       2.14987000      -4.64450000
O        3.43358000       2.35980000      -6.92774000
O       -4.55310000       4.73964000       1.70546000
O       -4.64971000       2.14987000       2.15133000
O       -2.36647000       3.43732000       2.36126000
O        5.83571000      -0.00146000      -3.06909000
O        4.63929000       2.14987000      -2.15133000
O        6.92253000       2.35980000      -3.43879000
O       -5.84613000      -0.00146000      -3.06909000
O       -4.74632000       1.70400000      -4.74111000
O        4.54268000       4.73964000      -1.70546000
O       -1.71067000       4.73964000      -4.54789000
O       -2.15654000       2.14987000      -4.64450000
O       -3.44400000       2.35980000      -6.92774000
O       -4.55310000      -4.74257000      -1.70546000
O       -4.64971000      -2.15280000      -2.15133000
O        6.92253000      -2.36273000      -3.43879000
O       -6.93295000      -2.36273000      -3.43879000
H       -7.77958000       2.85037000       3.49304000
H        1.79186000       5.58679000      -5.03198000
H       -5.03719000      -5.58972000       1.79707000
H       -1.80229000      -5.58972000       5.03198000
H        5.02677000      -5.58972000      -1.79708000
H       -3.49826000       2.85037000       7.77437000
H        5.02677000      -5.58972000       1.79707000
H       -7.77958000       2.85037000      -3.49305000
H        1.79186000      -5.58972000      -5.03198000
H        3.48783000      -2.85330000      -7.77437000
H        1.79186000       5.58679000       5.03198000
H       -1.80229000      -5.58972000      -5.03198000
H        3.48783000      -2.85330000       7.77437000
H        5.02677000       5.58679000       1.79707000
H       -1.80229000       5.58679000       5.03198000
H       -5.03719000       5.58679000      -1.79708000
H        7.76916000       2.85037000       3.49304000
H       -7.77958000      -2.85330000       3.49304000
H        1.79186000      -5.58972000       5.03198000
H       -3.49826000      -2.85330000      -7.77437000
H        7.76916000      -2.85330000       3.49304000
H        3.48783000       2.85037000       7.77437000
H       -3.49826000      -2.85330000       7.77437000
H        3.48783000       2.85037000      -7.77437000
H       -5.03719000       5.58679000       1.79707000
H        7.76916000       2.85037000      -3.49305000
H        5.02677000       5.58679000      -1.79708000
H       -1.80229000       5.58679000      -5.03198000
H       -3.49826000       2.85037000      -7.77437000
H       -5.03719000      -5.58972000      -1.79708000
H        7.76916000      -2.85330000      -3.49305000
H       -7.77958000      -2.85330000      -3.49305000
