37
Properties=species:S:1:pos:R:3 pbc="F F F"
Ba       0.00000300       0.00001700      -0.00000200
Si       1.54914000      -1.54914000       1.54914000
Al      -1.54914000      -1.54914000       1.54914000
Si       1.54914000       1.54914000       1.54914000
Si      -1.54914000       1.54914000      -1.54914000
Si      -1.54914000      -1.54914000      -1.54914000
Si      -1.54914000       1.54914000       1.54914000
Si       1.54914000      -1.54914000      -1.54914000
Al       1.54914000       1.54914000      -1.54914000
O        2.47625000      -2.47625000      -2.47625000
O        1.85917000       0.00000000      -1.85917000
O       -2.47625000       2.47625000       2.47625000
O        2.47625000      -2.47625000       2.47625000
O        1.85917000       0.00000000       1.85917000
O       -2.47625000      -2.47625000       2.47625000
O        1.85917000      -1.85917000       0.00000000
O        0.00000000      -1.85917000       1.85917000
O       -1.85917000       0.00000000       1.85917000
O       -1.85917000      -1.85917000       0.00000000
O        2.47625000       2.47625000       2.47625000
O        1.85917000       1.85917000       0.00000000
O        0.00000000       1.85917000       1.85917000
O       -2.47625000       2.47625000      -2.47625000
O        0.00000000       1.85917000      -1.85917000
O       -1.85917000       1.85917000       0.00000000
O       -1.85917000       0.00000000      -1.85917000
O       -2.47625000      -2.47625000      -2.47625000
O        0.00000000      -1.85917000      -1.85917000
O        2.47625000       2.47625000      -2.47625000
H        3.04205000      -3.04205000      -3.04205000
H       -3.04205000       3.04205000       3.04205000
H        3.04205000      -3.04205000       3.04205000
H       -3.04205000      -3.04205000       3.04205000
H        3.04205000       3.04205000       3.04205000
H       -3.04205000       3.04205000      -3.04205000
H       -3.04205000      -3.04205000      -3.04205000
H        3.04205000       3.04205000      -3.04205000
