109
Properties=species:S:1:pos:R:3 pbc="F F F"
Ba       0.00005000      -0.03949500       0.00194800
Si      -2.16795000      -0.00562000       4.06442000
Si      -1.50108000       3.74950000      -2.93135000
Si       2.30739000       4.55581000      -0.09639000
Si      -4.56143000      -2.31300000      -0.09639000
Si      -4.50808000      -0.00562000       1.96827000
Si       1.50107000      -3.76073000      -2.93135000
Al      -2.30739000      -4.56704000      -0.09639000
Si       0.00000000       2.16233000       4.06442000
Si       1.50107000       3.74950000      -2.93135000
Si      -2.30739000       4.55581000      -0.09639000
Si       0.00000000       4.50246000       1.96827000
Si       0.00000000      -2.17357000       4.06442000
Si       3.75511000       1.49546000      -2.93135000
Si      -1.50108000      -3.76073000      -2.93135000
Al       2.30739000      -4.56704000      -0.09639000
Si       0.00000000      -4.51369000       1.96827000
Si      -3.75511000      -1.50669000      -2.93135000
Si      -4.56143000       2.30177000      -0.09639000
Si      -3.75511000       1.49546000      -2.93135000
Si       4.56142000      -2.31300000      -0.09639000
Si       2.16795000      -0.00562000       4.06442000
Si       3.75511000      -1.50669000      -2.93135000
Si       4.56142000       2.30177000      -0.09639000
Si       4.50807000      -0.00562000       1.96827000
O       -4.75300000       1.89922000      -4.12834000
O        4.51292000      -1.55519000      -1.51387000
O        4.15766000      -1.31512000       1.10060000
O        6.06250000      -2.84165000       0.15847000
O        3.57324000      -0.00562000       3.27980000
O        2.47229000      -0.00562000       5.64513000
O        4.75300000      -1.91045000      -4.12834000
O       -1.30950000       4.15205000       1.10060000
O       -6.06250000      -0.00562000       2.38635000
O        1.54957000      -4.51854000      -1.51387000
O       -4.15766000       1.30388000       1.10060000
O       -3.57324000      -0.00562000       3.27980000
O       -2.47229000      -0.00562000       5.64513000
O       -1.54958000       4.50731000      -1.51387000
O       -1.31435000      -1.31997000       3.69215000
O       -1.31435000       1.30873000       3.69215000
O       -1.90484000       4.74738000      -4.12834000
O        0.00000000       3.22085000      -3.18621000
O       -4.75300000      -1.91045000      -4.12834000
O       -3.22646000      -0.00562000      -3.18621000
O        4.15766000       1.30388000       1.10060000
O        6.06250000       2.83042000       0.15847000
O        6.06250000      -0.00562000       2.38635000
O       -2.83604000       6.05688000       0.15847000
O       -3.57203000       3.56641000      -0.12216000
O        0.00000000       6.05688000       2.38635000
O        0.00000000      -3.57885000       3.27980000
O        0.00000000      -2.47790000       5.64513000
O       -2.49048000       2.48486000      -2.90558000
O        1.54957000       4.50731000      -1.51387000
O        1.30950000       4.15205000       1.10060000
O        2.83604000       6.05688000       0.15847000
O        3.57202000       3.56641000      -0.12216000
O       -4.51293000      -1.55519000      -1.51387000
O       -4.15766000      -1.31512000       1.10060000
O       -6.06250000      -2.84165000       0.15847000
O       -3.57203000      -3.57764000      -0.12216000
O        1.90484000      -4.75862000      -4.12834000
O       -4.51293000       1.54396000      -1.51387000
O       -6.06250000       2.83042000       0.15847000
O        1.31435000      -1.31997000       3.69215000
O        4.51292000       1.54396000      -1.51387000
O        4.75300000       1.89922000      -4.12834000
O        3.22646000      -0.00562000      -3.18621000
O       -1.90484000      -4.75862000      -4.12834000
O       -2.49048000      -2.49609000      -2.90558000
O        1.30950000      -4.16328000       1.10060000
O        2.83604000      -6.06812000       0.15847000
O        3.57202000      -3.57764000      -0.12216000
O        0.00000000      -6.06812000       2.38635000
O        0.00000000      -3.23208000      -3.18621000
O        2.49047000      -2.49609000      -2.90558000
O       -1.54958000      -4.51854000      -1.51387000
O       -1.30950000      -4.16328000       1.10060000
O       -2.83604000      -6.06812000       0.15847000
O        0.00000000       3.56762000       3.27980000
O        0.00000000       2.46667000       5.64513000
O        1.31435000       1.30873000       3.69215000
O        1.90484000       4.74738000      -4.12834000
O        2.49047000       2.48486000      -2.90558000
H       -5.36047000       2.14502000      -4.85701000
H        6.97522000      -3.16310000       0.31344000
H        2.65757000      -0.00562000       6.60746000
H        5.36047000      -2.15625000      -4.85701000
H       -7.00887000      -0.00562000       2.64089000
H       -2.65757000      -0.00562000       6.60746000
H       -2.15063000       5.35486000      -4.85701000
H       -5.36047000      -2.15625000      -4.85701000
H        6.97522000       3.15186000       0.31344000
H        7.00887000      -0.00562000       2.64089000
H       -3.15748000       6.96961000       0.31344000
H        0.00000000       7.00325000       2.64089000
H        0.00000000      -2.66318000       6.60746000
H        3.15748000       6.96961000       0.31344000
H       -6.97522000      -3.16310000       0.31344000
H        2.15063000      -5.36609000      -4.85701000
H       -6.97522000       3.15186000       0.31344000
H        5.36047000       2.14502000      -4.85701000
H       -2.15063000      -5.36609000      -4.85701000
H        3.15748000      -6.98084000       0.31344000
H        0.00000000      -7.01448000       2.64089000
H       -3.15748000      -6.98084000       0.31344000
H        0.00000000       2.65195000       6.60746000
H        2.15063000       5.35486000      -4.85701000
