109
Properties=species:S:1:pos:R:3 pbc="F F F"
Sr       0.03319700      -0.14707100       0.15298100
Si      -2.16798000      -0.00146000       4.06577000
Si      -1.50111000       3.75365000      -2.93000000
Si       2.30735000       4.55996000      -0.09504000
Al      -4.56146000      -2.30885000      -0.09504000
Si      -4.50811000      -0.00146600       1.96962200
Si       1.50104000      -3.75657000      -2.93000000
Si      -2.30742000      -4.56289000      -0.09504000
Si      -0.00003000       2.16649000       4.06577000
Si       1.50104000       3.75365000      -2.93000000
Si      -2.30742000       4.55996000      -0.09504000
Si      -0.00002600       4.50661000       1.96962000
Si      -0.00003000      -2.16941000       4.06577000
Si       3.75508000       1.49961000      -2.93000000
Si      -1.50111000      -3.75657000      -2.93000000
Si       2.30735000      -4.56289000      -0.09504000
Si      -0.00003000      -4.50954000       1.96962000
Si      -3.75515000      -1.50254000      -2.93000000
Si      -4.56146000       2.30593000      -0.09504000
Si      -3.75515000       1.49961000      -2.93000000
Si       4.56139000      -2.30885000      -0.09504000
Si       2.16792000      -0.00146000       4.06577000
Si       3.75508000      -1.50254000      -2.93000000
Si       4.56139000       2.30593000      -0.09504000
Al       4.50804000      -0.00146000       1.96962000
O       -4.75303000       1.90338000      -4.12699000
O        4.51289000      -1.55104000      -1.51252000
O        4.15763000      -1.31096000       1.10195000
O        6.06247000      -2.83750000       0.15982000
O        3.57320000      -0.00146000       3.28115000
O        2.47225000      -0.00146000       5.64648000
O        4.75297000      -1.90630000      -4.12699000
O       -1.30953000       4.15620000       1.10195000
O       -6.06253000      -0.00145600       2.38769900
O        1.54954000      -4.51439000      -1.51252000
O       -4.15770000       1.30804000       1.10195000
O       -3.57327000      -0.00145900       3.28115000
O       -2.47232000      -0.00146000       5.64648000
O       -1.54961000       4.51146000      -1.51252000
O       -1.31438000      -1.31581000       3.69351000
O       -1.31438000       1.31289000       3.69351000
O       -1.90487000       4.75154000      -4.12699000
O       -0.00003000       3.22500000      -3.18486000
O       -4.75303000      -1.90630000      -4.12699000
O       -3.22650000      -0.00146000      -3.18486000
O        4.15763000       1.30804000       1.10195000
O        6.06247000       2.83458000       0.15982000
O        6.06247000      -0.00146000       2.38770000
O       -2.83607000       6.06104000       0.15982000
O       -3.57206000       3.57056000      -0.12081000
O       -0.00003300       6.06104000       2.38770000
O       -0.00003000      -3.57470000       3.28115000
O       -0.00003000      -2.47375000       5.64648000
O       -2.49051000       2.48901000      -2.90423000
O        1.54954000       4.51146000      -1.51252000
O        1.30947000       4.15620000       1.10195000
O        2.83600000       6.06104000       0.15982000
O        3.57199000       3.57056000      -0.12081000
O       -4.51296000      -1.55104000      -1.51252000
O       -4.15770000      -1.31095900       1.10194900
O       -6.06253000      -2.83750000       0.15982000
O       -3.57206000      -3.57349000      -0.12081000
O        1.90480000      -4.75446000      -4.12699000
O       -4.51296000       1.54811000      -1.51252000
O       -6.06253000       2.83458000       0.15982000
O        1.31432000      -1.31581000       3.69351000
O        4.51289000       1.54811000      -1.51252000
O        4.75297000       1.90338000      -4.12699000
O        3.22643000      -0.00146000      -3.18486000
O       -1.90487000      -4.75446000      -4.12699000
O       -2.49051000      -2.49194000      -2.90423000
O        1.30947000      -4.15912000       1.10195000
O        2.83600000      -6.06396000       0.15982000
O        3.57199000      -3.57349000      -0.12081000
O       -0.00003000      -6.06396000       2.38770000
O       -0.00003000      -3.22792000      -3.18486000
O        2.49044000      -2.49194000      -2.90423000
O       -1.54961000      -4.51439000      -1.51252000
O       -1.30953000      -4.15912000       1.10195000
O       -2.83607000      -6.06396000       0.15982000
O       -0.00003100       3.57178000       3.28115000
O       -0.00003000       2.47083000       5.64648000
O        1.31432000       1.31289000       3.69351000
O        1.90480000       4.75154000      -4.12699000
O        2.49044000       2.48901000      -2.90423000
H       -5.36050000       2.14917000      -4.85566000
H        6.97519000      -3.15894000       0.31479000
H        2.65753000      -0.00146000       6.60881000
H        5.36044000      -2.15209000      -4.85566000
H       -7.00890000      -0.00146000       2.64224000
H       -2.65760000      -0.00146000       6.60881000
H       -2.15066000       5.35901000      -4.85566000
H       -5.36050000      -2.15209000      -4.85566000
H        6.97519000       3.15602000       0.31479000
H        7.00883000      -0.00146000       2.64224000
H       -3.15751000       6.97376000       0.31479000
H       -0.00002900       7.00741000       2.64224000
H       -0.00003000      -2.65903000       6.60881000
H        3.15745000       6.97376000       0.31479000
H       -6.97525000      -3.15894000       0.31479000
H        2.15060000      -5.36193000      -4.85566000
H       -6.97525000       3.15602000       0.31479000
H        5.36044000       2.14917000      -4.85566000
H       -2.15066000      -5.36193000      -4.85566000
H        3.15745000      -6.97668000       0.31479000
H       -0.00003000      -7.01033000       2.64224000
H       -3.15751000      -6.97668000       0.31479000
H       -0.00003000       2.65611000       6.60881000
H        2.15060000       5.35901000      -4.85566000
