145
Properties=species:S:1:pos:R:3 pbc="F F F"
Ba       0.00869500       0.03141900       0.03526400
Si      -3.34774000       1.55729000       5.53959000
Si       3.75463000      -3.34731000       1.55832000
Si      -3.75088000       3.35192000      -1.55164000
Al       5.53812000       1.55729000       3.35296000
Si      -5.53437000      -1.55267000       3.35296000
Si       3.35149000      -1.55267000      -5.53290000
Si       1.55685000       3.35192000       3.75610000
Si      -1.55311000      -3.34731000      -3.74941000
Si       3.75463000      -3.34731000      -1.55164000
Si       3.35149000       1.55729000      -5.53290000
Si      -3.75088000       3.35192000       1.55832000
Si       5.53812000       1.55729000      -3.34627000
Si      -5.53437000       1.55729000      -3.34627000
Si      -3.34774000      -1.55267000       5.53959000
Si       1.55685000       3.35192000      -3.74941000
Si      -3.75088000      -3.34731000       1.55832000
Si      -1.55311000      -3.34731000       3.75610000
Si       5.53812000      -1.55267000       3.35296000
Si       3.35149000       1.55729000       5.53959000
Si      -5.53437000       1.55729000       3.35296000
Si      -3.34774000      -1.55267000      -5.53290000
Si       1.55685000      -3.34731000       3.75610000
Si       3.75463000       3.35192000      -1.55164000
Si      -1.55311000       3.35192000      -3.74941000
Si      -3.34774000       1.55729000      -5.53290000
Si      -3.75088000      -3.34731000      -1.55164000
Si       5.53812000      -1.55267000      -3.34627000
Si      -5.53437000      -1.55267000      -3.34627000
Si       1.55685000      -3.34731000      -3.74941000
Si       3.35149000      -1.55267000       5.53959000
Si       3.75463000       3.35192000       1.55832000
Al      -1.55311000       3.35192000       3.75610000
O       -6.92586000       2.36357000       3.44213000
O        1.70733000       4.74341000      -4.54455000
O        2.36314000       3.44110000      -2.35792000
O       -3.44620000      -3.06678000       0.00334000
O       -4.54602000      -4.73880000       1.70880000
O       -2.35939000      -3.43648000       2.36461000
O        0.00187000      -3.06678000       3.45142000
O       -1.70359000      -4.73880000       4.55124000
O       -2.14946000      -2.14902000      -4.64116000
O       -4.73923000      -1.70315000       4.74445000
O       -4.64263000      -2.14902000       2.15467000
O       -2.35939000      -3.43648000      -2.35792000
O        4.54977000      -4.73880000      -1.70212000
O        4.64637000      -2.14902000      -2.14799000
O        2.36314000      -3.43648000      -2.35792000
O        4.74298000       1.70777000      -4.73776000
O       -5.83905000       0.00231000       3.07243000
O       -3.06721000       0.00231000       5.84427000
O       -4.73923000       1.70777000       4.74445000
O        3.44995000      -3.06678000       0.00334000
O       -2.14946000       2.15364000       4.64784000
O       -3.43691000       2.36357000       6.93108000
O        4.54977000      -4.73880000       1.70880000
O        4.64637000      -2.14902000       2.15467000
O       -6.92586000       2.36357000      -3.43545000
O       -2.14946000      -2.14902000       4.64784000
O        1.70733000      -4.73880000      -4.54455000
O        3.07096000       0.00231000      -5.83758000
O        4.74298000      -1.70315000      -4.73776000
O        2.15321000      -2.14902000      -4.64116000
O        3.44066000      -2.35896000      -6.92439000
O        0.00187000       3.07139000       3.45142000
O        1.70733000       4.74341000       4.55124000
O        2.15321000       2.15364000       4.64784000
O        2.36314000       3.44110000       2.36461000
O        0.00187000      -3.06678000      -3.44473000
O       -1.70359000      -4.73880000      -4.54455000
O        3.44066000      -2.35896000       6.93108000
O        4.54977000       4.74341000       1.70880000
O       -1.70359000       4.74341000       4.55124000
O        2.36314000      -3.43648000       2.36461000
O       -3.44620000       3.07139000       0.00334000
O       -4.54602000       4.74341000      -1.70212000
O       -4.64263000       2.15364000      -2.14799000
O       -2.35939000       3.44110000      -2.35792000
O        5.84280000       0.00231000       3.07243000
O        4.74298000       1.70777000       4.74445000
O        4.64637000       2.15364000       2.15467000
O        6.92961000       2.36357000       3.44213000
O       -6.92586000      -2.35896000       3.44213000
O        1.70733000      -4.73880000       4.55124000
O        2.15321000      -2.14902000       4.64784000
O        3.44995000       3.07139000       0.00334000
O       -3.06721000       0.00231000      -5.83758000
O       -4.73923000      -1.70315000      -4.73776000
O       -3.43691000      -2.35896000      -6.92439000
O        4.74298000      -1.70315000       4.74445000
O        6.92961000      -2.35896000       3.44213000
O        3.07096000       0.00231000       5.84427000
O        3.44066000       2.36357000       6.93108000
O       -3.43691000      -2.35896000       6.93108000
O        0.00187000       3.07139000      -3.44473000
O        2.15321000       2.15364000      -4.64116000
O        3.44066000       2.36357000      -6.92439000
O       -4.54602000       4.74341000       1.70880000
O       -4.64263000       2.15364000       2.15467000
O       -2.35939000       3.44110000       2.36461000
O        5.84280000       0.00231000      -3.06574000
O        4.64637000       2.15364000      -2.14799000
O        6.92961000       2.36357000      -3.43545000
O       -5.83905000       0.00231000      -3.06574000
O       -4.73923000       1.70777000      -4.73776000
O        4.54977000       4.74341000      -1.70212000
O       -1.70359000       4.74341000      -4.54455000
O       -2.14946000       2.15364000      -4.64116000
O       -3.43691000       2.36357000      -6.92439000
O       -4.54602000      -4.73880000      -1.70212000
O       -4.64263000      -2.14902000      -2.14799000
O        6.92961000      -2.35896000      -3.43545000
O       -6.92586000      -2.35896000      -3.43545000
H       -7.77250000       2.85415000       3.49639000
H        1.79895000       5.59057000      -5.02864000
H       -5.03011000      -5.58595000       1.80042000
H       -1.79520000      -5.58595000       5.03532000
H        5.03385000      -5.58595000      -1.79373000
H       -3.49117000       2.85415000       7.77771000
H        5.03385000      -5.58595000       1.80042000
H       -7.77250000       2.85415000      -3.48970000
H        1.79895000      -5.58595000      -5.02864000
H        3.49492000      -2.84953000      -7.77103000
H        1.79895000       5.59057000       5.03532000
H       -1.79520000      -5.58595000      -5.02864000
H        3.49492000      -2.84953000       7.77771000
H        5.03385000       5.59057000       1.80042000
H       -1.79520000       5.59057000       5.03532000
H       -5.03011000       5.59057000      -1.79373000
H        7.77625000       2.85415000       3.49639000
H       -7.77250000      -2.84953000       3.49639000
H        1.79895000      -5.58595000       5.03532000
H       -3.49117000      -2.84953000      -7.77103000
H        7.77625000      -2.84953000       3.49639000
H        3.49492000       2.85415000       7.77771000
H       -3.49117000      -2.84953000       7.77771000
H        3.49492000       2.85415000      -7.77103000
H       -5.03011000       5.59057000       1.80042000
H        7.77625000       2.85415000      -3.48970000
H        5.03385000       5.59057000      -1.79373000
H       -1.79520000       5.59057000      -5.02864000
H       -3.49117000       2.85415000      -7.77103000
H       -5.03011000      -5.58595000      -1.79373000
H        7.77625000      -2.84953000      -3.48970000
H       -7.77250000      -2.84953000      -3.48970000
