109
Properties=species:S:1:pos:R:3 pbc="F F F"
Ba      -0.03166600      -0.01932800      -0.00213700
Si      -2.17165000      -0.00231000       4.06395000
Si      -1.50477000       3.75280000      -2.93183000
Si       2.30369000       4.55911000      -0.09686000
Si      -4.56512000      -2.30970000      -0.09686000
Al      -4.51177000      -0.00231000       1.96779000
Si       1.49738000      -3.75742000      -2.93183000
Si      -2.31109000      -4.56374000      -0.09686000
Si      -0.00370000       2.16564000       4.06395000
Si       1.49738000       3.75280000      -2.93183000
Si      -2.31109000       4.55911000      -0.09686000
Si      -0.00370000       4.50576000       1.96779000
Si      -0.00370000      -2.17026000       4.06395000
Si       3.75141000       1.49876000      -2.93183000
Al      -1.50477000      -3.75742000      -2.93183000
Si       2.30369000      -4.56374000      -0.09686000
Si      -0.00370000      -4.51039000       1.96779000
Si      -3.75881000      -1.50339000      -2.93183000
Si      -4.56512000       2.30508000      -0.09686000
Si      -3.75881000       1.49876000      -2.93183000
Si       4.55773000      -2.30970000      -0.09686000
Si       2.16425000      -0.00231000       4.06395000
Si       3.75141000      -1.50339000      -2.93183000
Si       4.55773000       2.30508000      -0.09686000
Si       4.50438000      -0.00231000       1.96779000
O       -4.75670000       1.90253000      -4.12881000
O        4.50923000      -1.55189000      -1.51434000
O        4.15396000      -1.31181000       1.10012000
O        6.05880000      -2.83835000       0.15800000
O        3.56954000      -0.00231000       3.27932000
O        2.46859000      -0.00231000       5.64466000
O        4.74930000      -1.90715000      -4.12881000
O       -1.31320000       4.15535000       1.10012000
O       -6.06620000      -0.00231000       2.38588000
O        1.54588000      -4.51524000      -1.51434000
O       -4.16136000       1.30719000       1.10012000
O       -3.57694000      -0.00231000       3.27932000
O       -2.47599000      -0.00231000       5.64466000
O       -1.55327000       4.51061000      -1.51434000
O       -1.31805000      -1.31666000       3.69168000
O       -1.31805000       1.31204000       3.69168000
O       -1.90854000       4.75069000      -4.12881000
O       -0.00370000       3.22415000      -3.18669000
O       -4.75670000      -1.90715000      -4.12881000
O       -3.23016000      -0.00231000      -3.18669000
O        4.15396000       1.30719000       1.10012000
O        6.05880000       2.83373000       0.15800000
O        6.05880000      -0.00231000       2.38588000
O       -2.83974000       6.06019000       0.15800000
O       -3.57572000       3.56971000      -0.12263000
O       -0.00370000       6.06019000       2.38588000
O       -0.00370000      -3.57555000       3.27932000
O       -0.00370000      -2.47460000       5.64466000
O       -2.49417000       2.48816000      -2.90605000
O        1.54588000       4.51061000      -1.51434000
O        1.30580000       4.15535000       1.10012000
O        2.83234000       6.06019000       0.15800000
O        3.56833000       3.56971000      -0.12263000
O       -4.51662000      -1.55189000      -1.51434000
O       -4.16136000      -1.31181000       1.10012000
O       -6.06620000      -2.83835000       0.15800000
O       -3.57572000      -3.57434000      -0.12263000
O        1.90114000      -4.75531000      -4.12881000
O       -4.51662000       1.54726000      -1.51434000
O       -6.06620000       2.83373000       0.15800000
O        1.31065000      -1.31666000       3.69168000
O        4.50923000       1.54726000      -1.51434000
O        4.74930000       1.90253000      -4.12881000
O        3.22276000      -0.00231000      -3.18669000
O       -1.90854000      -4.75531000      -4.12881000
O       -2.49417000      -2.49279000      -2.90605000
O        1.30580000      -4.15997000       1.10012000
O        2.83234000      -6.06481000       0.15800000
O        3.56833000      -3.57434000      -0.12263000
O       -0.00370000      -6.06481000       2.38588000
O       -0.00370000      -3.22877000      -3.18669000
O        2.48678000      -2.49279000      -2.90605000
O       -1.55327000      -4.51524000      -1.51434000
O       -1.31320000      -4.15997000       1.10012000
O       -2.83974000      -6.06481000       0.15800000
O       -0.00370000       3.57093000       3.27932000
O       -0.00370000       2.46998000       5.64466000
O        1.31065000       1.31204000       3.69168000
O        1.90114000       4.75069000      -4.12881000
O        2.48678000       2.48816000      -2.90605000
H       -5.36417000       2.14832000      -4.85748000
H        6.97152000      -3.15979000       0.31296000
H        2.65387000      -0.00231000       6.60698000
H        5.35677000      -2.15294000      -4.85748000
H       -7.01257000      -0.00231000       2.64042000
H       -2.66127000      -0.00231000       6.60698000
H       -2.15433000       5.35816000      -4.85748000
H       -5.36417000      -2.15294000      -4.85748000
H        6.97152000       3.15517000       0.31296000
H        7.00517000      -0.00231000       2.64042000
H       -3.16118000       6.97291000       0.31296000
H       -0.00370000       7.00656000       2.64042000
H       -0.00370000      -2.65988000       6.60698000
H        3.15378000       6.97291000       0.31296000
H       -6.97892000      -3.15979000       0.31296000
H        2.14693000      -5.36278000      -4.85748000
H       -6.97892000       3.15517000       0.31296000
H        5.35677000       2.14832000      -4.85748000
H       -2.15433000      -5.36278000      -4.85748000
H        3.15378000      -6.97753000       0.31296000
H       -0.00370000      -7.01118000       2.64042000
H       -3.16118000      -6.97753000       0.31296000
H       -0.00370000       2.65526000       6.60698000
H        2.14693000       5.35816000      -4.85748000
