109
Properties=species:S:1:pos:R:3 pbc="F F F"
Ba       0.00014300       0.00021800      -0.03612300
Si      -2.16795000       0.00000000       4.06093000
Si      -1.50108000       3.75511000      -2.93484000
Si       2.30739000       4.56143000      -0.09988000
Si      -4.56143000      -2.30739000      -0.09988000
Si      -4.50808000       0.00000000       1.96478000
Si       1.50107000      -3.75511000      -2.93484000
Si      -2.30739000      -4.56142000      -0.09988000
Si       0.00000000       2.16795000       4.06093000
Al       1.50107000       3.75511000      -2.93484000
Si      -2.30739000       4.56143000      -0.09988000
Si       0.00000000       4.50808000       1.96478000
Si       0.00000000      -2.16795000       4.06093000
Si       3.75511000       1.50108000      -2.93484000
Al      -1.50108000      -3.75511000      -2.93484000
Si       2.30739000      -4.56142000      -0.09988000
Si       0.00000000      -4.50807000       1.96478000
Si      -3.75511000      -1.50107000      -2.93484000
Si      -4.56143000       2.30739000      -0.09988000
Si      -3.75511000       1.50108000      -2.93484000
Si       4.56142000      -2.30739000      -0.09988000
Si       2.16795000       0.00000000       4.06093000
Si       3.75511000      -1.50107000      -2.93484000
Si       4.56142000       2.30739000      -0.09988000
Si       4.50807000       0.00000000       1.96478000
O       -4.75300000       1.90484000      -4.13183000
O        4.51292000      -1.54957000      -1.51736000
O        4.15766000      -1.30950000       1.09711000
O        6.06250000      -2.83604000       0.15498000
O        3.57324000       0.00000000       3.27631000
O        2.47229000       0.00000000       5.64164000
O        4.75300000      -1.90484000      -4.13183000
O       -1.30950000       4.15766000       1.09711000
O       -6.06250000       0.00000000       2.38286000
O        1.54957000      -4.51292000      -1.51736000
O       -4.15766000       1.30950000       1.09711000
O       -3.57324000       0.00000000       3.27631000
O       -2.47229000       0.00000000       5.64164000
O       -1.54958000       4.51293000      -1.51736000
O       -1.31435000      -1.31435000       3.68866000
O       -1.31435000       1.31435000       3.68866000
O       -1.90484000       4.75300000      -4.13183000
O        0.00000000       3.22646000      -3.18970000
O       -4.75300000      -1.90484000      -4.13183000
O       -3.22646000       0.00000000      -3.18970000
O        4.15766000       1.30950000       1.09711000
O        6.06250000       2.83604000       0.15498000
O        6.06250000       0.00000000       2.38286000
O       -2.83604000       6.06250000       0.15498000
O       -3.57203000       3.57203000      -0.12565000
O        0.00000000       6.06250000       2.38286000
O        0.00000000      -3.57324000       3.27631000
O        0.00000000      -2.47229000       5.64164000
O       -2.49048000       2.49048000      -2.90907000
O        1.54957000       4.51293000      -1.51736000
O        1.30950000       4.15766000       1.09711000
O        2.83604000       6.06250000       0.15498000
O        3.57202000       3.57203000      -0.12565000
O       -4.51293000      -1.54957000      -1.51736000
O       -4.15766000      -1.30950000       1.09711000
O       -6.06250000      -2.83604000       0.15498000
O       -3.57203000      -3.57202000      -0.12565000
O        1.90484000      -4.75300000      -4.13183000
O       -4.51293000       1.54958000      -1.51736000
O       -6.06250000       2.83604000       0.15498000
O        1.31435000      -1.31435000       3.68866000
O        4.51292000       1.54958000      -1.51736000
O        4.75300000       1.90484000      -4.13183000
O        3.22646000       0.00000000      -3.18970000
O       -1.90484000      -4.75300000      -4.13183000
O       -2.49048000      -2.49047000      -2.90907000
O        1.30950000      -4.15766000       1.09711000
O        2.83604000      -6.06250000       0.15498000
O        3.57202000      -3.57202000      -0.12565000
O        0.00000000      -6.06250000       2.38286000
O        0.00000000      -3.22646000      -3.18970000
O        2.49047000      -2.49047000      -2.90907000
O       -1.54958000      -4.51292000      -1.51736000
O       -1.30950000      -4.15766000       1.09711000
O       -2.83604000      -6.06250000       0.15498000
O        0.00000000       3.57324000       3.27631000
O        0.00000000       2.47229000       5.64164000
O        1.31435000       1.31435000       3.68866000
O        1.90484000       4.75300000      -4.13183000
O        2.49047000       2.49048000      -2.90907000
H       -5.36047000       2.15063000      -4.86050000
H        6.97522000      -3.15748000       0.30995000
H        2.65757000       0.00000000       6.60397000
H        5.36047000      -2.15063000      -4.86050000
H       -7.00887000       0.00000000       2.63740000
H       -2.65757000       0.00000000       6.60397000
H       -2.15063000       5.36047000      -4.86050000
H       -5.36047000      -2.15063000      -4.86050000
H        6.97522000       3.15748000       0.30995000
H        7.00887000       0.00000000       2.63740000
H       -3.15748000       6.97522000       0.30995000
H        0.00000000       7.00887000       2.63740000
H        0.00000000      -2.65757000       6.60397000
H        3.15748000       6.97522000       0.30995000
H       -6.97522000      -3.15748000       0.30995000
H        2.15063000      -5.36047000      -4.86050000
H       -6.97522000       3.15748000       0.30995000
H        5.36047000       2.15063000      -4.86050000
H       -2.15063000      -5.36047000      -4.86050000
H        3.15748000      -6.97522000       0.30995000
H        0.00000000      -7.00887000       2.63740000
H       -3.15748000      -6.97522000       0.30995000
H        0.00000000       2.65757000       6.60397000
H        2.15063000       5.36047000      -4.86050000
