109
Properties=species:S:1:pos:R:3 pbc="F F F"
Ba      -0.03363700       0.00905100       0.01280400
Si      -1.53074000      -4.42280000       1.26367000
Al      -4.59587000      -0.88796000      -1.25248000
Si      -3.06976000      -3.53126000      -1.25248000
Si      -3.06804000      -0.00686000      -3.74335000
Si      -1.54279000      -2.64867000      -3.74335000
Si      -3.07235000       0.00357000       3.74050000
Si       1.52320000      -4.42280000       1.26367000
Si      -1.53591000      -2.65762000       3.74050000
Si      -3.07149000       3.53543000       1.26367000
Si       3.06222000      -3.53126000      -1.25248000
Si      -1.52988000       4.42249000      -1.25248000
Si       1.53525000      -2.64867000      -3.74335000
Si      -1.52902000       2.65880000      -3.74335000
Si       1.52836000      -2.65762000       3.74050000
Al      -1.54021000       2.65731000       3.74050000
Si       4.59091000       0.89064000       1.26367000
Si       4.58833000      -0.88796000      -1.25248000
Si       3.06050000      -0.00686000      -3.74335000
Si       3.06480000       0.00357000       3.74050000
Si       3.06394000       3.53543000       1.26367000
Si       1.52234000       4.42249000      -1.25248000
Si       1.52148000       2.65880000      -3.74335000
Si       1.53267000       2.65731000       3.74050000
Si      -4.59846000       0.89064000       1.26367000
O        1.88816000       1.09339000       3.59448000
O        3.57695000      -0.03072000       5.26536000
O        2.49068000       3.51455000       2.76887000
O        4.30342000       4.55816000       1.17662000
O        1.90193000       4.00952000       0.25553000
O        2.50445000       5.59580000      -1.75514000
O        1.68330000       3.14184000      -2.21569000
O        4.27071000      -2.46679000      -1.30022000
O       -2.51372000      -1.44704000       3.32770000
O       -3.58449000      -0.03072000       5.26536000
O       -1.89570000       1.09339000       3.59448000
O       -0.00377000      -4.11270000       0.85929000
O       -1.79930000      -3.91591000       2.76887000
O       -4.42803000      -0.35274000       0.25553000
O       -1.79671000      -6.00759000       1.17662000
O       -2.52233000      -3.65351000       0.25553000
O       -6.10305000      -0.62408000      -1.75514000
O       -3.56728000      -0.10824000      -2.21569000
O        6.09550000      -0.62408000      -1.75514000
O        3.55973000      -0.10824000      -2.21569000
O        2.50359000       3.51903000      -4.68691000
O        1.75904000       3.11799000       5.26536000
O       -6.10391000       1.45269000       1.17662000
O       -2.51200000       5.59580000      -1.75514000
O       -1.69084000       3.14184000      -2.21569000
O       -0.00377000       4.93684000      -1.30022000
O        1.78917000      -3.92932000      -4.68691000
O        2.48896000      -1.43809000      -4.21513000
O       -4.27826000      -2.46679000      -1.30022000
O       -3.59482000      -4.96845000      -1.75514000
O       -1.88021000      -3.03033000      -2.21569000
O       -4.30408000       0.41356000      -4.68691000
O       -2.49650000      -1.43809000      -4.21513000
O       -1.90431000       1.09936000      -3.85849000
O       -1.79671000      -3.92932000      -4.68691000
O       -0.00463000      -2.19396000      -3.85849000
O       -4.29375000       0.40462000       2.76887000
O        1.79175000      -3.91591000       2.76887000
O        4.29653000       0.41356000      -4.68691000
O        1.89762000       1.09787000      -3.85849000
O       -2.51114000       3.51903000      -4.68691000
O       -0.00377000       2.87945000      -4.21513000
O        2.50531000      -1.44853000       3.32770000
O        1.81413000      -3.08400000       5.26536000
O       -0.00291000       2.89883000       3.32770000
O       -1.76659000       3.11799000       5.26536000
O        3.55887000       2.05798000       0.85929000
O        4.28621000       0.40462000       2.76887000
O        6.09636000       1.45269000       1.17662000
O        4.42048000      -0.35274000       0.25553000
O        1.78917000      -6.00759000       1.17662000
O        2.51478000      -3.65351000       0.25553000
O       -0.00377000      -2.18352000       3.59448000
O       -1.82168000      -3.08400000       5.26536000
O       -3.56642000       2.05798000       0.85929000
O       -2.49823000       3.51455000       2.76887000
O       -4.31097000       4.55816000       1.17662000
O       -1.90947000       4.00952000       0.25553000
O        3.58728000      -4.96845000      -1.75514000
O        1.87266000      -3.03033000      -2.21569000
H        3.88890000      -0.05160000       6.19415000
H        5.05821000       5.18096000       1.12360000
H        3.10206000       6.30974000      -2.06101000
H       -3.89644000      -0.05160000       6.19415000
H       -1.95868000      -6.97265000       1.12360000
H       -7.02014000      -0.46351000      -2.06101000
H        7.01260000      -0.46351000      -2.06101000
H        3.10109000       4.04237000      -5.26094000
H        1.89693000       3.39858000       6.19415000
H       -7.02066000       1.79496000       1.12360000
H       -3.10960000       6.30974000      -2.06101000
H        1.94365000      -4.70844000      -5.26094000
H       -3.91431000      -5.84297000      -2.06101000
H       -5.05605000       0.66933000      -5.26094000
H       -1.95119000      -4.70844000      -5.26094000
H        5.04851000       0.66933000      -5.26094000
H       -3.10863000       4.04237000      -5.26094000
H        1.98819000      -3.34372000       6.19415000
H       -1.90448000       3.39858000       6.19415000
H        7.01312000       1.79496000       1.12360000
H        1.95114000      -6.97265000       1.12360000
H       -1.99574000      -3.34372000       6.19415000
H       -5.06576000       5.18096000       1.12360000
H        3.90677000      -5.84297000      -2.06101000
