109
Properties=species:S:1:pos:R:3 pbc="F F F"
Ba      -0.02292100       0.02258500       0.02386600
Si      -2.17073000       0.00278000       4.06696000
Si      -1.50385000       3.75789000      -2.92881000
Si       2.30461000       4.56420000      -0.09385000
Si      -4.56420000      -2.30461000      -0.09385000
Al      -4.51085000       0.00278000       1.97081000
Si       1.49830000      -3.75234000      -2.92881000
Si      -2.31016000      -4.55865000      -0.09385000
Si      -0.00278000       2.17073000       4.06696000
Si       1.49830000       3.75789000      -2.92881000
Si      -2.31016000       4.56420000      -0.09385000
Al      -0.00278000       4.51085000       1.97081000
Si      -0.00278000      -2.16517000       4.06696000
Si       3.75234000       1.50385000      -2.92881000
Si      -1.50385000      -3.75234000      -2.92881000
Si       2.30461000      -4.55865000      -0.09385000
Si      -0.00278000      -4.50530000       1.97081000
Si      -3.75789000      -1.49830000      -2.92881000
Si      -4.56420000       2.31016000      -0.09385000
Si      -3.75789000       1.50385000      -2.92881000
Si       4.55865000      -2.30461000      -0.09385000
Si       2.16517000       0.00278000       4.06696000
Si       3.75234000      -1.49830000      -2.92881000
Si       4.55865000       2.31016000      -0.09385000
Si       4.50530000       0.00278000       1.97081000
O       -4.75578000       1.90761000      -4.12580000
O        4.51015000      -1.54680000      -1.51133000
O        4.15489000      -1.30672000       1.10314000
O        6.05972000      -2.83326000       0.16101000
O        3.57046000       0.00278000       3.28234000
O        2.46951000       0.00278000       5.64767000
O        4.75022000      -1.90206000      -4.12580000
O       -1.31228000       4.16044000       1.10314000
O       -6.06528000       0.00278000       2.38889000
O        1.54680000      -4.51015000      -1.51133000
O       -4.16044000       1.31228000       1.10314000
O       -3.57601000       0.00278000       3.28234000
O       -2.47506000       0.00278000       5.64767000
O       -1.55235000       4.51570000      -1.51133000
O       -1.31713000      -1.31157000       3.69470000
O       -1.31713000       1.31713000       3.69470000
O       -1.90761000       4.75578000      -4.12580000
O       -0.00278000       3.22924000      -3.18367000
O       -4.75578000      -1.90206000      -4.12580000
O       -3.22924000       0.00278000      -3.18367000
O        4.15489000       1.31228000       1.10314000
O        6.05972000       2.83881000       0.16101000
O        6.05972000       0.00278000       2.38889000
O       -2.83881000       6.06528000       0.16101000
O       -3.57480000       3.57480000      -0.11962000
O       -0.00278000       6.06528000       2.38889000
O       -0.00278000      -3.57046000       3.28234000
O       -0.00278000      -2.46951000       5.64767000
O       -2.49325000       2.49325000      -2.90304000
O        1.54680000       4.51570000      -1.51133000
O        1.30672000       4.16044000       1.10314000
O        2.83326000       6.06528000       0.16101000
O        3.56925000       3.57480000      -0.11962000
O       -4.51570000      -1.54680000      -1.51133000
O       -4.16044000      -1.30672000       1.10314000
O       -6.06528000      -2.83326000       0.16101000
O       -3.57480000      -3.56925000      -0.11962000
O        1.90206000      -4.75022000      -4.12580000
O       -4.51570000       1.55235000      -1.51133000
O       -6.06528000       2.83881000       0.16101000
O        1.31157000      -1.31157000       3.69470000
O        4.51015000       1.55235000      -1.51133000
O        4.75022000       1.90761000      -4.12580000
O        3.22369000       0.00278000      -3.18367000
O       -1.90761000      -4.75022000      -4.12580000
O       -2.49325000      -2.48770000      -2.90304000
O        1.30672000      -4.15489000       1.10314000
O        2.83326000      -6.05972000       0.16101000
O        3.56925000      -3.56925000      -0.11962000
O       -0.00278000      -6.05972000       2.38889000
O       -0.00278000      -3.22369000      -3.18367000
O        2.48770000      -2.48770000      -2.90304000
O       -1.55235000      -4.51015000      -1.51133000
O       -1.31228000      -4.15489000       1.10314000
O       -2.83881000      -6.05972000       0.16101000
O       -0.00278000       3.57601000       3.28234000
O       -0.00278000       2.47506000       5.64767000
O        1.31157000       1.31713000       3.69470000
O        1.90206000       4.75578000      -4.12580000
O        2.48770000       2.49325000      -2.90304000
H       -5.36325000       2.15341000      -4.85447000
H        6.97245000      -3.15470000       0.31598000
H        2.65479000       0.00278000       6.61000000
H        5.35770000      -2.14786000      -4.85447000
H       -7.01164000       0.00278000       2.64343000
H       -2.66034000       0.00278000       6.61000000
H       -2.15341000       5.36325000      -4.85447000
H       -5.36325000      -2.14786000      -4.85447000
H        6.97245000       3.16026000       0.31598000
H        7.00609000       0.00278000       2.64343000
H       -3.16026000       6.97800000       0.31598000
H       -0.00278000       7.01164000       2.64343000
H       -0.00278000      -2.65479000       6.61000000
H        3.15470000       6.97800000       0.31598000
H       -6.97800000      -3.15470000       0.31598000
H        2.14786000      -5.35770000      -4.85447000
H       -6.97800000       3.16026000       0.31598000
H        5.35770000       2.15341000      -4.85447000
H       -2.15341000      -5.35770000      -4.85447000
H        3.15470000      -6.97245000       0.31598000
H       -0.00278000      -7.00609000       2.64343000
H       -3.16026000      -6.97245000       0.31598000
H       -0.00278000       2.66034000       6.61000000
H        2.14786000       5.36325000      -4.85447000
