55
Properties=species:S:1:pos:R:3 pbc="F F F"
Cs      -0.11155900       0.18024400       0.28084600
Al       0.56912000       0.30918000       3.43949000
Si       0.56912000      -0.30847000      -3.43160000
Si      -2.88210000      -1.53397000       0.24606000
Si      -0.46438000       2.27684000      -2.14902000
Si      -1.19903000      -2.62516000      -2.14902000
Si      -1.19903000       2.62587000       2.15692000
Si      -0.46438000      -2.27613000       2.15692000
Si      -2.88210000       1.53468000      -0.23816000
Si       2.76479000      -0.94867000      -1.23661000
Si       1.21869000      -3.36732000      -0.23816000
Si       1.21869000       3.36803000       0.24606000
Si       2.76479000       0.94938000       1.24451000
O       -1.74691000       3.66509000       3.28542000
O       -2.42968000       2.19351000       1.18048000
O       -0.03894000      -3.35163000      -1.27063000
O       -0.59512000       1.30135000       2.88124000
O        0.85759000       0.63761000       5.00620000
O       -0.59512000      -1.30064000      -2.87335000
O        0.08350000      -1.23691000       3.28542000
O        1.93467000       0.53271000       2.58111000
O        0.85759000      -0.63691000      -4.99830000
O        0.08350000       1.23762000      -3.27753000
O        1.93467000      -0.53200000      -2.57321000
O       -4.11068000      -2.39868000       0.87634000
O       -2.42968000      -2.19280000      -1.17258000
O       -1.62447000      -1.54966000       1.27852000
O       -3.36772000       0.00035000       0.00395000
O       -1.06829000       3.60136000      -2.87335000
O        0.76628000       2.70920000      -1.17258000
O       -1.62447000       1.55037000      -1.27063000
O       -1.74691000      -3.66438000      -3.27753000
O       -0.03894000       3.35234000       1.27852000
O       -1.06829000      -3.60065000       2.88124000
O        0.76628000      -2.70849000       1.18048000
O       -4.11068000       2.39939000      -0.86844000
O        2.30823000       0.00035000       0.00395000
O        4.35655000      -0.76240000      -1.51273000
O        2.44727000      -2.50261000      -0.86844000
O        1.70431000      -4.90165000       0.00395000
O        2.44727000       2.50332000       0.87634000
O        1.70431000       4.90235000       0.00395000
O        4.35655000       0.76311000       1.52063000
H       -2.07651000       4.29028000       3.96432000
H        1.03139000       0.83550000       5.95014000
H        1.03139000      -0.83479000      -5.94225000
H       -4.84968000      -2.91882000       1.25546000
H       -1.43228000       4.39968000      -3.30992000
H       -2.07651000      -4.28957000      -3.95643000
H       -1.43228000      -4.39898000       3.31781000
H       -4.84968000       2.91953000      -1.24757000
H        5.31577000      -0.65014000      -1.67913000
H        1.99674000      -5.82557000       0.14974000
H        1.99674000       5.82628000      -0.14184000
H        5.31577000       0.65085000       1.68703000
