37
Properties=species:S:1:pos:R:3 pbc="F F F"
K        0.03996700      -0.03998400       0.04009500
Al       1.55204000      -1.55204000       1.55204000
Si      -1.54625000      -1.55204000       1.55204000
Si       1.55204000       1.54625000       1.55204000
Si      -1.54625000       1.54625000      -1.54625000
Si      -1.54625000      -1.55204000      -1.54625000
Si      -1.54625000       1.54625000       1.55204000
Si       1.55204000      -1.55204000      -1.54625000
Si       1.55204000       1.54625000      -1.54625000
O        2.47914000      -2.47914000      -2.47335000
O        1.86206000      -0.00289000      -1.85627000
O       -2.47336000       2.47336000       2.47915000
O        2.47914000      -2.47914000       2.47915000
O        1.86206000      -0.00289000       1.86206000
O       -2.47336000      -2.47914000       2.47915000
O        1.86206000      -1.86206000       0.00290000
O        0.00289000      -1.86206000       1.86206000
O       -1.85627000      -0.00289000       1.86206000
O       -1.85627000      -1.86206000       0.00290000
O        2.47914000       2.47336000       2.47915000
O        1.86206000       1.85627000       0.00290000
O        0.00289000       1.85627000       1.86206000
O       -2.47336000       2.47336000      -2.47335000
O        0.00289000       1.85627000      -1.85627000
O       -1.85627000       1.85627000       0.00290000
O       -1.85627000      -0.00289000      -1.85627000
O       -2.47336000      -2.47914000      -2.47335000
O        0.00289000      -1.86206000      -1.85627000
O        2.47914000       2.47336000      -2.47335000
H        3.04495000      -3.04495000      -3.03916000
H       -3.03916000       3.03916000       3.04495000
H        3.04495000      -3.04495000       3.04495000
H       -3.03916000      -3.04495000       3.04495000
H        3.04495000       3.03916000       3.04495000
H       -3.03916000       3.03916000      -3.03916000
H       -3.03916000      -3.04495000      -3.03916000
H        3.04495000       3.03916000      -3.03916000
