145
Properties=species:S:1:pos:R:3 pbc="F F F"
Ba       0.04139000      -0.00151600       0.02599400
Si      -3.34440000       1.55498000       5.53940000
Si       3.75797000      -3.34961000       1.55813000
Si      -3.74755000       3.34961000      -1.55183000
Al       5.54145000       1.55498000       3.35277000
Si      -5.53103000      -1.55498000       3.35277000
Si       3.35482000      -1.55498000      -5.53309000
Si       1.56019000       3.34961000       3.75591000
Si      -1.54977000      -3.34961000      -3.74960000
Si       3.75797000      -3.34961000      -1.55183000
Si       3.35482000       1.55498000      -5.53309000
Si      -3.74755000       3.34961000       1.55813000
Si       5.54145000       1.55498000      -3.34646000
Si      -5.53103000       1.55498000      -3.34646000
Si      -3.34440000      -1.55498000       5.53940000
Si       1.56019000       3.34961000      -3.74960000
Si      -3.74755000      -3.34961000       1.55813000
Si      -1.54977000      -3.34961000       3.75591000
Al       5.54145000      -1.55498000       3.35277000
Si       3.35482000       1.55498000       5.53940000
Si      -5.53103000       1.55498000       3.35277000
Si      -3.34440000      -1.55498000      -5.53309000
Si       1.56019000      -3.34961000       3.75591000
Si       3.75797000       3.34961000      -1.55183000
Si      -1.54977000       3.34961000      -3.74960000
Si      -3.34440000       1.55498000      -5.53309000
Si      -3.74755000      -3.34961000      -1.55183000
Si       5.54145000      -1.55498000      -3.34646000
Si      -5.53103000      -1.55498000      -3.34646000
Si       1.56019000      -3.34961000      -3.74960000
Si       3.35482000      -1.55498000       5.53940000
Si       3.75797000       3.34961000       1.55813000
Si      -1.54977000       3.34961000       3.75591000
O       -6.92253000       2.36126000       3.44194000
O        1.71067000       4.74111000      -4.54474000
O        2.36647000       3.43879000      -2.35811000
O       -3.44287000      -3.06909000       0.00315000
O       -4.54268000      -4.74111000       1.70861000
O       -2.35605000      -3.43879000       2.36442000
O        0.00521000      -3.06909000       3.45123000
O       -1.70025000      -4.74111000       4.55105000
O       -2.14612000      -2.15133000      -4.64135000
O       -4.73590000      -1.70546000       4.74426000
O       -4.63929000      -2.15133000       2.15448000
O       -2.35605000      -3.43879000      -2.35811000
O        4.55310000      -4.74111000      -1.70231000
O        4.64971000      -2.15133000      -2.14818000
O        2.36647000      -3.43879000      -2.35811000
O        4.74632000       1.70546000      -4.73795000
O       -5.83571000       0.00000000       3.07224000
O       -3.06388000       0.00000000       5.84408000
O       -4.73590000       1.70546000       4.74426000
O        3.45329000      -3.06909000       0.00315000
O       -2.14612000       2.15133000       4.64765000
O       -3.43358000       2.36126000       6.93089000
O        4.55310000      -4.74111000       1.70861000
O        4.64971000      -2.15133000       2.15448000
O       -6.92253000       2.36126000      -3.43564000
O       -2.14612000      -2.15133000       4.64765000
O        1.71067000      -4.74111000      -4.54474000
O        3.07430000       0.00000000      -5.83777000
O        4.74632000      -1.70546000      -4.73795000
O        2.15654000      -2.15133000      -4.64135000
O        3.44400000      -2.36126000      -6.92458000
O        0.00521000       3.06909000       3.45123000
O        1.71067000       4.74111000       4.55105000
O        2.15654000       2.15133000       4.64765000
O        2.36647000       3.43879000       2.36442000
O        0.00521000      -3.06909000      -3.44492000
O       -1.70025000      -4.74111000      -4.54474000
O        3.44400000      -2.36126000       6.93089000
O        4.55310000       4.74111000       1.70861000
O       -1.70025000       4.74111000       4.55105000
O        2.36647000      -3.43879000       2.36442000
O       -3.44287000       3.06909000       0.00315000
O       -4.54268000       4.74111000      -1.70231000
O       -4.63929000       2.15133000      -2.14818000
O       -2.35605000       3.43879000      -2.35811000
O        5.84613000       0.00000000       3.07224000
O        4.74632000       1.70546000       4.74426000
O        4.64971000       2.15133000       2.15448000
O        6.93295000       2.36126000       3.44194000
O       -6.92253000      -2.36126000       3.44194000
O        1.71067000      -4.74111000       4.55105000
O        2.15654000      -2.15133000       4.64765000
O        3.45329000       3.06909000       0.00315000
O       -3.06388000       0.00000000      -5.83777000
O       -4.73590000      -1.70546000      -4.73795000
O       -3.43358000      -2.36126000      -6.92458000
O        4.74632000      -1.70546000       4.74426000
O        6.93295000      -2.36126000       3.44194000
O        3.07430000       0.00000000       5.84408000
O        3.44400000       2.36126000       6.93089000
O       -3.43358000      -2.36126000       6.93089000
O        0.00521000       3.06909000      -3.44492000
O        2.15654000       2.15133000      -4.64135000
O        3.44400000       2.36126000      -6.92458000
O       -4.54268000       4.74111000       1.70861000
O       -4.63929000       2.15133000       2.15448000
O       -2.35605000       3.43879000       2.36442000
O        5.84613000       0.00000000      -3.06593000
O        4.64971000       2.15133000      -2.14818000
O        6.93295000       2.36126000      -3.43564000
O       -5.83571000       0.00000000      -3.06593000
O       -4.73590000       1.70546000      -4.73795000
O        4.55310000       4.74111000      -1.70231000
O       -1.70025000       4.74111000      -4.54474000
O       -2.14612000       2.15133000      -4.64135000
O       -3.43358000       2.36126000      -6.92458000
O       -4.54268000      -4.74111000      -1.70231000
O       -4.63929000      -2.15133000      -2.14818000
O        6.93295000      -2.36126000      -3.43564000
O       -6.92253000      -2.36126000      -3.43564000
H       -7.76916000       2.85184000       3.49620000
H        1.80229000       5.58826000      -5.02883000
H       -5.02677000      -5.58826000       1.80023000
H       -1.79186000      -5.58826000       5.03513000
H        5.03719000      -5.58826000      -1.79392000
H       -3.48783000       2.85184000       7.77752000
H        5.03719000      -5.58826000       1.80023000
H       -7.76916000       2.85184000      -3.48989000
H        1.80229000      -5.58826000      -5.02883000
H        3.49826000      -2.85184000      -7.77122000
H        1.80229000       5.58826000       5.03513000
H       -1.79186000      -5.58826000      -5.02883000
H        3.49826000      -2.85184000       7.77752000
H        5.03719000       5.58826000       1.80023000
H       -1.79186000       5.58826000       5.03513000
H       -5.02677000       5.58826000      -1.79392000
H        7.77958000       2.85184000       3.49620000
H       -7.76916000      -2.85184000       3.49620000
H        1.80229000      -5.58826000       5.03513000
H       -3.48783000      -2.85184000      -7.77122000
H        7.77958000      -2.85184000       3.49620000
H        3.49826000       2.85184000       7.77752000
H       -3.48783000      -2.85184000       7.77752000
H        3.49826000       2.85184000      -7.77122000
H       -5.02677000       5.58826000       1.80023000
H        7.77958000       2.85184000      -3.48989000
H        5.03719000       5.58826000      -1.79392000
H       -1.79186000       5.58826000      -5.02883000
H       -3.48783000       2.85184000      -7.77122000
H       -5.02677000      -5.58826000      -1.79392000
H        7.77958000      -2.85184000      -3.48989000
H       -7.76916000      -2.85184000      -3.48989000
