109
Properties=species:S:1:pos:R:3 pbc="F F F"
Ba      -0.02208000      -0.01291600      -0.03305400
Si      -1.52980000      -4.42552000       1.25753000
Si      -4.59493000      -0.89069000      -1.25862000
Si      -3.06882000      -3.53399000      -1.25862000
Al      -3.06710000      -0.00959000      -3.74949000
Al      -1.54185000      -2.65140000      -3.74949000
Si      -3.07141000       0.00085000       3.73436000
Si       1.52414000      -4.42552000       1.25753000
Si      -1.53497000      -2.66034000       3.73436000
Si      -3.07055000       3.53270000       1.25753000
Si       3.06316000      -3.53399000      -1.25862000
Si      -1.52894000       4.41977000      -1.25862000
Si       1.53619000      -2.65140000      -3.74949000
Si      -1.52808000       2.65608000      -3.74949000
Si       1.52930000      -2.66034000       3.73436000
Si      -1.53927000       2.65458000       3.73436000
Si       4.59185000       0.88791000       1.25753000
Si       4.58927000      -0.89069000      -1.25862000
Si       3.06144000      -0.00959000      -3.74949000
Si       3.06574000       0.00085000       3.73436000
Si       3.06488000       3.53270000       1.25753000
Si       1.52328000       4.41977000      -1.25862000
Si       1.52242000       2.65608000      -3.74949000
Si       1.53361000       2.65458000       3.73436000
Si      -4.59752000       0.88791000       1.25753000
O        1.88910000       1.09067000       3.58834000
O        3.57789000      -0.03344000       5.25922000
O        2.49162000       3.51183000       2.76273000
O        4.30436000       4.55543000       1.17048000
O        1.90287000       4.00680000       0.24939000
O        2.50539000       5.59308000      -1.76128000
O        1.68424000       3.13912000      -2.22183000
O        4.27165000      -2.46951000      -1.30636000
O       -2.51278000      -1.44976000       3.32156000
O       -3.58355000      -0.03344000       5.25922000
O       -1.89476000       1.09067000       3.58834000
O       -0.00283000      -4.11542000       0.85315000
O       -1.79836000      -3.91863000       2.76273000
O       -4.42709000      -0.35547000       0.24939000
O       -1.79578000      -6.01031000       1.17048000
O       -2.52139000      -3.65624000       0.24939000
O       -6.10211000      -0.62680000      -1.76128000
O       -3.56634000      -0.11097000      -2.22183000
O        6.09644000      -0.62680000      -1.76128000
O        3.56067000      -0.11097000      -2.22183000
O        2.50453000       3.51630000      -4.69305000
O        1.75998000       3.11526000       5.25922000
O       -6.10297000       1.44997000       1.17048000
O       -2.51106000       5.59308000      -1.76128000
O       -1.68990000       3.13912000      -2.22183000
O       -0.00283000       4.93411000      -1.30636000
O        1.79011000      -3.93205000      -4.69305000
O        2.48990000      -1.44082000      -4.22127000
O       -4.27732000      -2.46951000      -1.30636000
O       -3.59388000      -4.97118000      -1.76128000
O       -1.87927000      -3.03306000      -2.22183000
O       -4.30314000       0.41084000      -4.69305000
O       -2.49557000      -1.44082000      -4.22127000
O       -1.90337000       1.09663000      -3.86463000
O       -1.79578000      -3.93205000      -4.69305000
O       -0.00369000      -2.19668000      -3.86463000
O       -4.29281000       0.40189000       2.76273000
O        1.79269000      -3.91863000       2.76273000
O        4.29747000       0.41084000      -4.69305000
O        1.89856000       1.09514000      -3.86463000
O       -2.51020000       3.51630000      -4.69305000
O       -0.00283000       2.87672000      -4.22127000
O        2.50625000      -1.45125000       3.32156000
O        1.81507000      -3.08673000       5.25922000
O       -0.00197000       2.89610000       3.32156000
O       -1.76565000       3.11526000       5.25922000
O        3.55981000       2.05526000       0.85315000
O        4.28714000       0.40189000       2.76273000
O        6.09730000       1.44997000       1.17048000
O        4.42142000      -0.35547000       0.24939000
O        1.79011000      -6.01031000       1.17048000
O        2.51572000      -3.65624000       0.24939000
O       -0.00283000      -2.18625000       3.58834000
O       -1.82074000      -3.08673000       5.25922000
O       -3.56548000       2.05526000       0.85315000
O       -2.49729000       3.51183000       2.76273000
O       -4.31003000       4.55543000       1.17048000
O       -1.90853000       4.00680000       0.24939000
O        3.58822000      -4.97118000      -1.76128000
O        1.87360000      -3.03306000      -2.22183000
H        3.88984000      -0.05433000       6.18801000
H        5.05915000       5.17824000       1.11746000
H        3.10300000       6.30702000      -2.06715000
H       -3.89550000      -0.05433000       6.18801000
H       -1.95774000      -6.97538000       1.11746000
H       -7.01920000      -0.46624000      -2.06715000
H        7.01354000      -0.46624000      -2.06715000
H        3.10203000       4.03964000      -5.26708000
H        1.89787000       3.39586000       6.18801000
H       -7.01973000       1.79224000       1.11746000
H       -3.10866000       6.30702000      -2.06715000
H        1.94459000      -4.71116000      -5.26708000
H       -3.91337000      -5.84569000      -2.06715000
H       -5.05511000       0.66661000      -5.26708000
H       -1.95025000      -4.71116000      -5.26708000
H        5.04945000       0.66661000      -5.26708000
H       -3.10769000       4.03964000      -5.26708000
H        1.98913000      -3.34644000       6.18801000
H       -1.90354000       3.39586000       6.18801000
H        7.01406000       1.79224000       1.11746000
H        1.95207000      -6.97538000       1.11746000
H       -1.99480000      -3.34644000       6.18801000
H       -5.06482000       5.17824000       1.11746000
H        3.90771000      -5.84569000      -2.06715000
