37
Properties=species:S:1:pos:R:3 pbc="F F F"
Cs       0.02866300      -0.02861900       0.02867400
Al       1.55164000      -1.55164000       1.55164000
Si      -1.54664000      -1.55164000       1.55164000
Si       1.55164000       1.54664000       1.55164000
Si      -1.54664000       1.54664000      -1.54664000
Si      -1.54664000      -1.55164000      -1.54664000
Si      -1.54664000       1.54664000       1.55164000
Si       1.55164000      -1.55164000      -1.54664000
Si       1.55164000       1.54664000      -1.54664000
O        2.47875000      -2.47875000      -2.47375000
O        1.86167000      -0.00250000      -1.85667000
O       -2.47375000       2.47375000       2.47875000
O        2.47875000      -2.47875000       2.47875000
O        1.86167000      -0.00250000       1.86167000
O       -2.47375000      -2.47875000       2.47875000
O        1.86167000      -1.86167000       0.00250000
O        0.00250000      -1.86167000       1.86167000
O       -1.85667000      -0.00250000       1.86167000
O       -1.85667000      -1.86167000       0.00250000
O        2.47875000       2.47375000       2.47875000
O        1.86167000       1.85667000       0.00250000
O        0.00250000       1.85667000       1.86167000
O       -2.47375000       2.47375000      -2.47375000
O        0.00250000       1.85667000      -1.85667000
O       -1.85667000       1.85667000       0.00250000
O       -1.85667000      -0.00250000      -1.85667000
O       -2.47375000      -2.47875000      -2.47375000
O        0.00250000      -1.86167000      -1.85667000
O        2.47875000       2.47375000      -2.47375000
H        3.04455000      -3.04455000      -3.03955000
H       -3.03955000       3.03955000       3.04455000
H        3.04455000      -3.04455000       3.04455000
H       -3.03955000      -3.04455000       3.04455000
H        3.04455000       3.03955000       3.04455000
H       -3.03955000       3.03955000      -3.03955000
H       -3.03955000      -3.04455000      -3.03955000
H        3.04455000       3.03955000      -3.03955000
