109
Properties=species:S:1:pos:R:3 pbc="F F F"
Ba      -0.02041900       0.01010000       0.03726000
Si      -2.17073000       0.00133000       4.06826000
Si      -1.50385000       3.75645000      -2.92752000
Si       2.30461000       4.56276000      -0.09256000
Si      -4.56420000      -2.30605000      -0.09256000
Al      -4.51085000       0.00133000       1.97210000
Si       1.49830000      -3.75378000      -2.92752000
Si      -2.31016000      -4.56009000      -0.09256000
Al      -0.00278000       2.16928000       4.06826000
Si       1.49830000       3.75645000      -2.92752000
Si      -2.31016000       4.56276000      -0.09256000
Si      -0.00278000       4.50941000       1.97210000
Si      -0.00278000      -2.16662000       4.06826000
Si       3.75234000       1.50241000      -2.92752000
Si      -1.50385000      -3.75378000      -2.92752000
Si       2.30461000      -4.56009000      -0.09256000
Si      -0.00278000      -4.50674000       1.97210000
Si      -3.75789000      -1.49974000      -2.92752000
Si      -4.56420000       2.30872000      -0.09256000
Si      -3.75789000       1.50241000      -2.92752000
Si       4.55865000      -2.30605000      -0.09256000
Si       2.16517000       0.00133000       4.06826000
Si       3.75234000      -1.49974000      -2.92752000
Si       4.55865000       2.30872000      -0.09256000
Si       4.50530000       0.00133000       1.97210000
O       -4.75578000       1.90617000      -4.12450000
O        4.51015000      -1.54824000      -1.51004000
O        4.15489000      -1.30817000       1.10443000
O        6.05972000      -2.83470000       0.16230000
O        3.57046000       0.00133000       3.28363000
O        2.46951000       0.00133000       5.64896000
O        4.75022000      -1.90350000      -4.12450000
O       -1.31228000       4.15900000       1.10443000
O       -6.06528000       0.00133000       2.39019000
O        1.54680000      -4.51159000      -1.51004000
O       -4.16044000       1.31083000       1.10443000
O       -3.57601000       0.00133000       3.28363000
O       -2.47506000       0.00133000       5.64896000
O       -1.55235000       4.51426000      -1.51004000
O       -1.31713000      -1.31302000       3.69599000
O       -1.31713000       1.31568000       3.69599000
O       -1.90761000       4.75433000      -4.12450000
O       -0.00278000       3.22780000      -3.18238000
O       -4.75578000      -1.90350000      -4.12450000
O       -3.22924000       0.00133000      -3.18238000
O        4.15489000       1.31083000       1.10443000
O        6.05972000       2.83737000       0.16230000
O        6.05972000       0.00133000       2.39019000
O       -2.83881000       6.06383000       0.16230000
O       -3.57480000       3.57336000      -0.11833000
O       -0.00278000       6.06383000       2.39019000
O       -0.00278000      -3.57190000       3.28363000
O       -0.00278000      -2.47095000       5.64896000
O       -2.49325000       2.49181000      -2.90175000
O        1.54680000       4.51426000      -1.51004000
O        1.30672000       4.15900000       1.10443000
O        2.83326000       6.06383000       0.16230000
O        3.56925000       3.57336000      -0.11833000
O       -4.51570000      -1.54824000      -1.51004000
O       -4.16044000      -1.30817000       1.10443000
O       -6.06528000      -2.83470000       0.16230000
O       -3.57480000      -3.57069000      -0.11833000
O        1.90206000      -4.75167000      -4.12450000
O       -4.51570000       1.55091000      -1.51004000
O       -6.06528000       2.83737000       0.16230000
O        1.31157000      -1.31302000       3.69599000
O        4.51015000       1.55091000      -1.51004000
O        4.75022000       1.90617000      -4.12450000
O        3.22369000       0.00133000      -3.18238000
O       -1.90761000      -4.75167000      -4.12450000
O       -2.49325000      -2.48914000      -2.90175000
O        1.30672000      -4.15633000       1.10443000
O        2.83326000      -6.06117000       0.16230000
O        3.56925000      -3.57069000      -0.11833000
O       -0.00278000      -6.06117000       2.39019000
O       -0.00278000      -3.22513000      -3.18238000
O        2.48770000      -2.48914000      -2.90175000
O       -1.55235000      -4.51159000      -1.51004000
O       -1.31228000      -4.15633000       1.10443000
O       -2.83881000      -6.06117000       0.16230000
O       -0.00278000       3.57457000       3.28363000
O       -0.00278000       2.47362000       5.64896000
O        1.31157000       1.31568000       3.69599000
O        1.90206000       4.75433000      -4.12450000
O        2.48770000       2.49181000      -2.90175000
H       -5.36325000       2.15197000      -4.85318000
H        6.97245000      -3.15615000       0.31727000
H        2.65479000       0.00133000       6.61129000
H        5.35770000      -2.14930000      -4.85318000
H       -7.01164000       0.00133000       2.64472000
H       -2.66034000       0.00133000       6.61129000
H       -2.15341000       5.36181000      -4.85318000
H       -5.36325000      -2.14930000      -4.85318000
H        6.97245000       3.15881000       0.31727000
H        7.00609000       0.00133000       2.64472000
H       -3.16026000       6.97656000       0.31727000
H       -0.00278000       7.01020000       2.64472000
H       -0.00278000      -2.65623000       6.61129000
H        3.15470000       6.97656000       0.31727000
H       -6.97800000      -3.15615000       0.31727000
H        2.14786000      -5.35914000      -4.85318000
H       -6.97800000       3.15881000       0.31727000
H        5.35770000       2.15197000      -4.85318000
H       -2.15341000      -5.35914000      -4.85318000
H        3.15470000      -6.97389000       0.31727000
H       -0.00278000      -7.00753000       2.64472000
H       -3.16026000      -6.97389000       0.31727000
H       -0.00278000       2.65890000       6.61129000
H        2.14786000       5.36181000      -4.85318000
