145
Properties=species:S:1:pos:R:3 pbc="F F F"
Ba       0.03321600      -0.00070600      -0.03283800
Si      -3.34712000       1.55498000       5.53375000
Si       3.75525000      -3.34961000       1.55248000
Si      -3.75026000       3.34961000      -1.55748000
Si       5.53874000       1.55498000       3.34712000
Si      -5.53375000      -1.55498000       3.34712000
Si       3.35211000      -1.55498000      -5.53874000
Si       1.55748000       3.34961000       3.75026000
Si      -1.55248000      -3.34961000      -3.75525000
Al       3.75525000      -3.34961000      -1.55748000
Si       3.35211000       1.55498000      -5.53874000
Si      -3.75026000       3.34961000       1.55248000
Si       5.53874000       1.55498000      -3.35211000
Si      -5.53375000       1.55498000      -3.35211000
Si      -3.34712000      -1.55498000       5.53375000
Al       1.55748000       3.34961000      -3.75525000
Si      -3.75026000      -3.34961000       1.55248000
Si      -1.55248000      -3.34961000       3.75026000
Si       5.53874000      -1.55498000       3.34712000
Si       3.35211000       1.55498000       5.53375000
Si      -5.53375000       1.55498000       3.34712000
Si      -3.34712000      -1.55498000      -5.53874000
Si       1.55748000      -3.34961000       3.75026000
Si       3.75525000       3.34961000      -1.55748000
Si      -1.55248000       3.34961000      -3.75525000
Si      -3.34712000       1.55498000      -5.53874000
Si      -3.75026000      -3.34961000      -1.55748000
Si       5.53874000      -1.55498000      -3.35211000
Si      -5.53375000      -1.55498000      -3.35211000
Si       1.55748000      -3.34961000      -3.75525000
Si       3.35211000      -1.55498000       5.53375000
Si       3.75525000       3.34961000       1.55248000
Si      -1.55248000       3.34961000       3.75026000
O       -6.92524000       2.36126000       3.43629000
O        1.70796000       4.74111000      -4.55039000
O        2.36376000       3.43879000      -2.36376000
O       -3.44558000      -3.06909000      -0.00250000
O       -4.54540000      -4.74111000       1.70296000
O       -2.35877000      -3.43879000       2.35877000
O        0.00250000      -3.06909000       3.44558000
O       -1.70296000      -4.74111000       4.54540000
O       -2.14883000      -2.15133000      -4.64700000
O       -4.73861000      -1.70546000       4.73861000
O       -4.64200000      -2.15133000       2.14883000
O       -2.35877000      -3.43879000      -2.36376000
O        4.55039000      -4.74111000      -1.70796000
O        4.64700000      -2.15133000      -2.15383000
O        2.36376000      -3.43879000      -2.36376000
O        4.74360000       1.70546000      -4.74360000
O       -5.83843000       0.00000000       3.06659000
O       -3.06659000       0.00000000       5.83843000
O       -4.73861000       1.70546000       4.73861000
O        3.45057000      -3.06909000      -0.00250000
O       -2.14883000       2.15133000       4.64200000
O       -3.43629000       2.36126000       6.92524000
O        4.55039000      -4.74111000       1.70296000
O        4.64700000      -2.15133000       2.14883000
O       -6.92524000       2.36126000      -3.44129000
O       -2.14883000      -2.15133000       4.64200000
O        1.70796000      -4.74111000      -4.55039000
O        3.07158000       0.00000000      -5.84342000
O        4.74360000      -1.70546000      -4.74360000
O        2.15383000      -2.15133000      -4.64700000
O        3.44129000      -2.36126000      -6.93023000
O        0.00250000       3.06909000       3.44558000
O        1.70796000       4.74111000       4.54540000
O        2.15383000       2.15133000       4.64200000
O        2.36376000       3.43879000       2.35877000
O        0.00250000      -3.06909000      -3.45057000
O       -1.70296000      -4.74111000      -4.55039000
O        3.44129000      -2.36126000       6.92524000
O        4.55039000       4.74111000       1.70296000
O       -1.70296000       4.74111000       4.54540000
O        2.36376000      -3.43879000       2.35877000
O       -3.44558000       3.06909000      -0.00250000
O       -4.54540000       4.74111000      -1.70796000
O       -4.64200000       2.15133000      -2.15383000
O       -2.35877000       3.43879000      -2.36376000
O        5.84342000       0.00000000       3.06659000
O        4.74360000       1.70546000       4.73861000
O        4.64700000       2.15133000       2.14883000
O        6.93023000       2.36126000       3.43629000
O       -6.92524000      -2.36126000       3.43629000
O        1.70796000      -4.74111000       4.54540000
O        2.15383000      -2.15133000       4.64200000
O        3.45057000       3.06909000      -0.00250000
O       -3.06659000       0.00000000      -5.84342000
O       -4.73861000      -1.70546000      -4.74360000
O       -3.43629000      -2.36126000      -6.93023000
O        4.74360000      -1.70546000       4.73861000
O        6.93023000      -2.36126000       3.43629000
O        3.07158000       0.00000000       5.83843000
O        3.44129000       2.36126000       6.92524000
O       -3.43629000      -2.36126000       6.92524000
O        0.00250000       3.06909000      -3.45057000
O        2.15383000       2.15133000      -4.64700000
O        3.44129000       2.36126000      -6.93023000
O       -4.54540000       4.74111000       1.70296000
O       -4.64200000       2.15133000       2.14883000
O       -2.35877000       3.43879000       2.35877000
O        5.84342000       0.00000000      -3.07158000
O        4.64700000       2.15133000      -2.15383000
O        6.93023000       2.36126000      -3.44129000
O       -5.83843000       0.00000000      -3.07158000
O       -4.73861000       1.70546000      -4.74360000
O        4.55039000       4.74111000      -1.70796000
O       -1.70296000       4.74111000      -4.55039000
O       -2.14883000       2.15133000      -4.64700000
O       -3.43629000       2.36126000      -6.93023000
O       -4.54540000      -4.74111000      -1.70796000
O       -4.64200000      -2.15133000      -2.15383000
O        6.93023000      -2.36126000      -3.44129000
O       -6.92524000      -2.36126000      -3.44129000
H       -7.77187000       2.85184000       3.49055000
H        1.79957000       5.58826000      -5.03448000
H       -5.02948000      -5.58826000       1.79458000
H       -1.79458000      -5.58826000       5.02948000
H        5.03448000      -5.58826000      -1.79957000
H       -3.49055000       2.85184000       7.77187000
H        5.03448000      -5.58826000       1.79458000
H       -7.77187000       2.85184000      -3.49554000
H        1.79957000      -5.58826000      -5.03448000
H        3.49554000      -2.85184000      -7.77687000
H        1.79957000       5.58826000       5.02948000
H       -1.79458000      -5.58826000      -5.03448000
H        3.49554000      -2.85184000       7.77187000
H        5.03448000       5.58826000       1.79458000
H       -1.79458000       5.58826000       5.02948000
H       -5.02948000       5.58826000      -1.79957000
H        7.77687000       2.85184000       3.49055000
H       -7.77187000      -2.85184000       3.49055000
H        1.79957000      -5.58826000       5.02948000
H       -3.49055000      -2.85184000      -7.77687000
H        7.77687000      -2.85184000       3.49055000
H        3.49554000       2.85184000       7.77187000
H       -3.49055000      -2.85184000       7.77187000
H        3.49554000       2.85184000      -7.77687000
H       -5.02948000       5.58826000       1.79458000
H        7.77687000       2.85184000      -3.49554000
H        5.03448000       5.58826000      -1.79957000
H       -1.79458000       5.58826000      -5.03448000
H       -3.49055000       2.85184000      -7.77687000
H       -5.02948000      -5.58826000      -1.79957000
H        7.77687000      -2.85184000      -3.49554000
H       -7.77187000      -2.85184000      -3.49554000
