109
Properties=species:S:1:pos:R:3 pbc="F F F"
Ba      -0.00959400      -0.02982000       0.02803600
Si      -2.16937000      -0.00414000       4.06698000
Si      -1.50250000       3.75097000      -2.92879000
Si       2.30597000       4.55728000      -0.09383000
Si      -4.56285000      -2.31153000      -0.09383000
Si      -4.50950000      -0.00414700       1.97083000
Si       1.49965000      -3.75926000      -2.92879000
Al      -2.30881000      -4.56557000      -0.09383000
Si      -0.00142000       2.16381000       4.06698000
Si       1.49965000       3.75097000      -2.92879000
Si      -2.30881000       4.55728000      -0.09383000
Si      -0.00142100       4.50393000       1.97083000
Al      -0.00142000      -2.17209000       4.06698000
Si       3.75369000       1.49693000      -2.92879000
Si      -1.50250000      -3.75926000      -2.92879000
Si       2.30597000      -4.56557000      -0.09383000
Si      -0.00142000      -4.51222000       1.97083000
Si      -3.75653000      -1.50522000      -2.92879000
Si      -4.56285000       2.30325000      -0.09383000
Si      -3.75653000       1.49693000      -2.92879000
Si       4.56000000      -2.31153000      -0.09383000
Si       2.16653000      -0.00414000       4.06698000
Si       3.75369000      -1.50522000      -2.92879000
Si       4.56000000       2.30325000      -0.09383000
Si       4.50665000      -0.00414000       1.97083000
O       -4.75442000       1.90069000      -4.12578000
O        4.51150000      -1.55372000      -1.51131000
O        4.15624000      -1.31364000       1.10316000
O        6.06108000      -2.84018000       0.16103000
O        3.57182000      -0.00414000       3.28236000
O        2.47087000      -0.00414000       5.64769000
O        4.75158000      -1.90898000      -4.12578000
O       -1.31092000       4.15352000       1.10316000
O       -6.06392000      -0.00413400       2.38891000
O        1.54815000      -4.51707000      -1.51131000
O       -4.15908000       1.30536000       1.10316000
O       -3.57466000      -0.00413900       3.28236000
O       -2.47371000      -0.00414000       5.64769000
O       -1.55100000       4.50878000      -1.51131000
O       -1.31577000      -1.31849000       3.69472000
O       -1.31577000       1.31021000       3.69472000
O       -1.90626000       4.74886000      -4.12578000
O       -0.00142000       3.22232000      -3.18365000
O       -4.75442000      -1.90898000      -4.12578000
O       -3.22788000      -0.00414000      -3.18365000
O        4.15624000       1.30536000       1.10316000
O        6.06108000       2.83189000       0.16103000
O        6.06108000      -0.00414000       2.38891000
O       -2.83746000       6.05836000       0.16103000
O       -3.57345000       3.56788000      -0.11960000
O       -0.00141900       6.05836000       2.38891000
O       -0.00142000      -3.57738000       3.28236000
O       -0.00142000      -2.47643000       5.64769000
O       -2.49190000       2.48633000      -2.90302000
O        1.54815000       4.50878000      -1.51131000
O        1.30808000       4.15352000       1.10316000
O        2.83462000       6.05836000       0.16103000
O        3.57060000       3.56788000      -0.11960000
O       -4.51435000      -1.55372000      -1.51131000
O       -4.15908000      -1.31364000       1.10316000
O       -6.06392000      -2.84018000       0.16103000
O       -3.57345000      -3.57617000      -0.11960000
O        1.90342000      -4.75714000      -4.12578000
O       -4.51435000       1.54543000      -1.51131000
O       -6.06392000       2.83189000       0.16103000
O        1.31293000      -1.31849000       3.69472000
O        4.51150000       1.54543000      -1.51131000
O        4.75158000       1.90069000      -4.12578000
O        3.22504000      -0.00414000      -3.18365000
O       -1.90626000      -4.75714000      -4.12578000
O       -2.49190000      -2.49462000      -2.90302000
O        1.30808000      -4.16181000       1.10316000
O        2.83462000      -6.06664000       0.16103000
O        3.57060000      -3.57617000      -0.11960000
O       -0.00142000      -6.06664000       2.38891000
O       -0.00142000      -3.23061000      -3.18365000
O        2.48905000      -2.49462000      -2.90302000
O       -1.55100000      -4.51707000      -1.51131000
O       -1.31092000      -4.16181000       1.10316000
O       -2.83746000      -6.06664000       0.16103000
O       -0.00142000       3.56909000       3.28236000
O       -0.00142000       2.46814000       5.64769000
O        1.31293000       1.31021000       3.69472000
O        1.90342000       4.74886000      -4.12578000
O        2.48905000       2.48633000      -2.90302000
H       -5.36189000       2.14649000      -4.85445000
H        6.97380000      -3.16162000       0.31600000
H        2.65615000      -0.00414000       6.61002000
H        5.35905000      -2.15477000      -4.85445000
H       -7.01029000      -0.00414100       2.64345000
H       -2.65899000      -0.00414000       6.61002000
H       -2.15205000       5.35633000      -4.85445000
H       -5.36189000      -2.15477000      -4.85445000
H        6.97380000       3.15334000       0.31600000
H        7.00745000      -0.00414000       2.64345000
H       -3.15890000       6.97108000       0.31600000
H       -0.00142000       7.00472000       2.64345000
H       -0.00142000      -2.66171000       6.61002000
H        3.15606000       6.97108000       0.31600000
H       -6.97664000      -3.16162000       0.31600000
H        2.14921000      -5.36461000      -4.85445000
H       -6.97664000       3.15334000       0.31600000
H        5.35905000       2.14649000      -4.85445000
H       -2.15205000      -5.36461000      -4.85445000
H        3.15606000      -6.97936000       0.31600000
H       -0.00142000      -7.01301000       2.64345000
H       -3.15890000      -6.97936000       0.31600000
H       -0.00142000       2.65342000       6.61002000
H        2.14921000       5.35633000      -4.85445000
