109
Properties=species:S:1:pos:R:3 pbc="F F F"
Sr      -0.18603300      -0.09305400       0.28923500
Si      -1.52793000      -4.42445000       1.26371000
Al      -4.59307000      -0.88961000      -1.25244000
Si      -3.06696000      -3.53291000      -1.25244000
Si      -3.06523000      -0.00851000      -3.74331000
Si      -1.53999000      -2.65032000      -3.74331000
Si      -3.06954000       0.00192000       3.74054000
Si       1.52601000      -4.42445000       1.26371000
Si      -1.53310000      -2.65927000       3.74054000
Si      -3.06868000       3.53378000       1.26371000
Si       3.06503000      -3.53291000      -1.25244000
Si      -1.52707000       4.42084000      -1.25244000
Si       1.53806000      -2.65032000      -3.74331000
Si      -1.52621000       2.65715000      -3.74331000
Si       1.53117000      -2.65927000       3.74054000
Si      -1.53740000       2.65566000       3.74054000
Si       4.59372000       0.88899000       1.26371000
Si       4.59114000      -0.88961000      -1.25244000
Si       3.06331000      -0.00851000      -3.74331000
Al       3.06761000       0.00192000       3.74054000
Si       3.06675000       3.53378000       1.26371000
Si       1.52515000       4.42084000      -1.25244000
Si       1.52428000       2.65715000      -3.74331000
Si       1.53547000       2.65566000       3.74054000
Si      -4.59565000       0.88899000       1.26371000
O        1.89096000       1.09174000       3.59451000
O        3.57976000      -0.03237000       5.26539000
O        2.49349000       3.51290000       2.76890000
O        4.30623000       4.55651000       1.17665000
O        1.90474000       4.00787000       0.25556000
O        2.50726000       5.59415000      -1.75511000
O        1.68611000       3.14019000      -2.21565000
O        4.27352000      -2.46844000      -1.30018000
O       -2.51091000      -1.44869000       3.32773000
O       -3.58168000      -0.03237000       5.26539000
O       -1.89289000       1.09174000       3.59451000
O       -0.00096000      -4.11435000       0.85933000
O       -1.79649000      -3.91756000       2.76890000
O       -4.42522000      -0.35439000       0.25556000
O       -1.79391000      -6.00924000       1.17665000
O       -2.51952000      -3.65516000       0.25556000
O       -6.10024000      -0.62573000      -1.75511000
O       -3.56447000      -0.10989000      -2.21565000
O        6.09831000      -0.62573000      -1.75511000
O        3.56254000      -0.10989000      -2.21565000
O        2.50640000       3.51738000      -4.68687000
O        1.76185000       3.11634000       5.26539000
O       -6.10110000       1.45104000       1.17665000
O       -2.50919000       5.59415000      -1.75511000
O       -1.68803000       3.14019000      -2.21565000
O       -0.00096000       4.93519000      -1.30018000
O        1.79198000      -3.93097000      -4.68687000
O        2.49177000      -1.43974000      -4.21509000
O       -4.27545000      -2.46844000      -1.30018000
O       -3.59201000      -4.97010000      -1.75511000
O       -1.87740000      -3.03198000      -2.21565000
O       -4.30127000       0.41191000      -4.68687000
O       -2.49370000      -1.43974000      -4.21509000
O       -1.90150000       1.09771000      -3.85845000
O       -1.79391000      -3.93097000      -4.68687000
O       -0.00183000      -2.19561000      -3.85845000
O       -4.29094000       0.40297000       2.76890000
O        1.79456000      -3.91756000       2.76890000
O        4.29934000       0.41191000      -4.68687000
O        1.90043000       1.09622000      -3.85845000
O       -2.50833000       3.51738000      -4.68687000
O       -0.00096000       2.87780000      -4.21509000
O        2.50812000      -1.45018000       3.32773000
O        1.81694000      -3.08565000       5.26539000
O       -0.00010000       2.89718000       3.32773000
O       -1.76378000       3.11634000       5.26539000
O        3.56168000       2.05633000       0.85933000
O        4.28901000       0.40297000       2.76890000
O        6.09917000       1.45104000       1.17665000
O        4.42329000      -0.35439000       0.25556000
O        1.79198000      -6.00924000       1.17665000
O        2.51759000      -3.65516000       0.25556000
O       -0.00096000      -2.18517000       3.59451000
O       -1.81887000      -3.08565000       5.26539000
O       -3.56361000       2.05633000       0.85933000
O       -2.49542000       3.51290000       2.76890000
O       -4.30816000       4.55651000       1.17665000
O       -1.90666000       4.00787000       0.25556000
O        3.59008000      -4.97010000      -1.75511000
O        1.87547000      -3.03198000      -2.21565000
H        3.89170000      -0.05325000       6.19418000
H        5.06102000       5.17931000       1.12364000
H        3.10487000       6.30809000      -2.06098000
H       -3.89363000      -0.05325000       6.19418000
H       -1.95587000      -6.97430000       1.12364000
H       -7.01733000      -0.46516000      -2.06098000
H        7.01540000      -0.46516000      -2.06098000
H        3.10389000       4.04072000      -5.26090000
H        1.89974000       3.39693000       6.19418000
H       -7.01786000       1.79331000       1.12364000
H       -3.10679000       6.30809000      -2.06098000
H        1.94646000      -4.71009000      -5.26090000
H       -3.91150000      -5.84462000      -2.06098000
H       -5.05324000       0.66768000      -5.26090000
H       -1.94839000      -4.71009000      -5.26090000
H        5.05132000       0.66768000      -5.26090000
H       -3.10582000       4.04072000      -5.26090000
H        1.99100000      -3.34537000       6.19418000
H       -1.90167000       3.39693000       6.19418000
H        7.01593000       1.79331000       1.12364000
H        1.95394000      -6.97430000       1.12364000
H       -1.99293000      -3.34537000       6.19418000
H       -5.06295000       5.17931000       1.12364000
H        3.90958000      -5.84462000      -2.06098000
