55
Properties=species:S:1:pos:R:3 pbc="F F F"
Na      -0.24454900      -0.49450500      -0.48965000
Si       0.56688400       0.30541900       3.43274800
Si       0.56688900      -0.31222900      -3.43834700
Si      -2.88434700      -1.53787600       0.23906000
Si      -0.46662000       2.27309300      -2.15568600
Al      -1.20116800      -2.62896500      -2.15577300
Si      -1.20127000       2.62210600       2.15018300
Si      -0.46663000      -2.27990400       2.15017500
Si      -2.88429800       1.53093000      -0.24488600
Si       2.76248500      -0.95231500      -1.24370800
Si       1.21645500      -3.37107700      -0.24490400
Si       1.21645000       3.36427100       0.23932000
Si       2.76255000       0.94558200       1.23782100
O       -1.74914900       3.66133000       3.27868000
O       -2.43192600       2.18975700       1.17373900
O       -0.04118300      -3.35538700      -1.27736600
O       -0.59736100       1.29759100       2.87450100
O        0.85535000       0.63385100       4.99946000
O       -0.59735700      -1.30438700      -2.88006400
O        0.08126000      -1.24067100       3.27867800
O        1.93242600       0.52895900       2.57436600
O        0.85534900      -0.64067100      -5.00504000
O        0.08124600       1.23385500      -3.28427500
O        1.93243100      -0.53576400      -2.57994000
O       -4.11290900      -2.40233500       0.86977200
O       -2.43192000      -2.19655100      -1.17931500
O       -1.62669800      -1.55341200       1.27183500
O       -3.36995700      -0.00340300      -0.00275200
O       -1.07053000       3.59758800      -2.88011500
O        0.76404500       2.70544700      -1.17932600
O       -1.62674800       1.54661000      -1.27742400
O       -1.74921800      -3.66812200      -3.28425300
O       -0.04117900       3.34858100       1.27178000
O       -1.07054600      -3.60440300       2.87449500
O        0.76403900      -2.71226400       1.17374100
O       -4.11293900       2.39561200      -0.87517500
O        2.30599300      -0.00342200      -0.00268400
O        4.35434800      -0.76621000      -1.51927500
O        2.44503700      -2.50636900      -0.87515100
O        1.70206700      -4.90541100      -0.00279200
O        2.44503200       2.49956200       0.86958900
O        1.70207000       4.89859000      -0.00279200
O        4.35431500       0.75937300       1.51386300
H       -2.07875000       4.28652000       3.95758000
H        1.02915000       0.83174000       5.94340000
H        1.02915100      -0.83855000      -5.94899000
H       -4.85192900      -2.92257800       1.24870600
H       -1.43452000       4.39592000      -3.31665900
H       -2.07875000      -4.29333000      -3.96317000
H       -1.43451200      -4.40273900       3.31107400
H       -4.85191400       2.91577500      -1.25431300
H        5.31352900      -0.65390100      -1.68587300
H        1.99450000      -5.82933000       0.14300000
H        1.99449900       5.82252000      -0.14857800
H        5.31352800       0.64708600       1.68028900
