55
Properties=species:S:1:pos:R:3 pbc="F F F"
Sr       0.00215300      -0.84440400      -0.69739800
Si       1.54003000       0.46228000      -3.08023000
Al      -3.10058000      -1.21067000      -0.96602000
Si       1.54277000       2.88283000      -1.12324000
Si      -1.54003000      -0.46811000       3.07557000
Si       3.10058000       1.20484000       0.96137000
Al       3.10058000      -1.21067000      -0.96602000
Si      -1.54003000       0.46228000      -3.08023000
Si       1.54277000      -2.88866000       1.11859000
Si      -3.10058000       1.20484000       0.96137000
Si       1.54003000      -0.46811000       3.07557000
Si      -1.54277000       2.88283000      -1.12324000
Si      -1.54277000      -2.88866000       1.11859000
O        3.55055000      -0.00292000      -0.00233000
O        2.00368000      -2.11837000      -0.21689000
O        4.38485000       2.10497000       1.32761000
O        0.00000000       0.00213000      -2.98774000
O        1.98180000       0.54927000      -4.62658000
O       -2.46733000      -0.61183000      -2.32000000
O        1.71236000       1.90704000      -2.39399000
O        2.46733000      -0.61183000      -2.32000000
O       -2.00368000      -2.11837000      -0.21689000
O       -4.38485000      -2.11081000      -1.33226000
O       -3.55055000      -0.00292000      -0.00233000
O        2.00368000       2.11254000       0.21224000
O        0.00000000       3.32029000      -0.98637000
O        2.45365000       4.19269000      -1.33226000
O        0.00000000      -0.00796000       2.98309000
O       -1.98180000      -0.55510000       4.62192000
O       -1.71236000      -1.91288000       2.38934000
O       -2.46733000       0.60600000       2.31535000
O        2.46733000       0.60600000       2.31535000
O        4.38485000      -2.11081000      -1.33226000
O       -1.98180000       0.54927000      -4.62658000
O       -1.71236000       1.90704000      -2.39399000
O        1.71236000      -1.91288000       2.38934000
O        0.00000000      -3.32612000       0.98171000
O        2.45365000      -4.19853000       1.32761000
O       -2.00368000       2.11254000       0.21224000
O       -4.38485000       2.10497000       1.32761000
O        1.98180000      -0.55510000       4.62192000
O       -2.45365000       4.19269000      -1.33226000
O       -2.45365000      -4.19853000       1.32761000
H        5.16633000       2.65271000       1.55047000
H        2.25060000       0.60220000      -5.56750000
H       -5.16633000      -2.65854000      -1.55512000
H        3.00842000       4.99046000      -1.45956000
H       -2.25061000      -0.60803000       5.56285000
H        5.16633000      -2.65854000      -1.55512000
H       -2.25061000       0.60220000      -5.56750000
H        3.00842000      -4.99629000       1.45491000
H       -5.16633000       2.65271000       1.55047000
H        2.25060000      -0.60803000       5.56285000
H       -3.00842000       4.99046000      -1.45956000
H       -3.00842000      -4.99629000       1.45491000
