109
Properties=species:S:1:pos:R:3 pbc="F F F"
K        0.17701100       0.35257200      -0.18169500
Si      -2.16645000       0.00296900       4.06458000
Si      -1.49957000       3.75808000      -2.93120000
Al       2.30889000       4.56439000      -0.09624000
Si      -4.55992000      -2.30442000      -0.09624000
Si      -4.50657000       0.00296400       1.96841800
Si       1.50258000      -3.75214000      -2.93120000
Si      -2.30589000      -4.55846000      -0.09624000
Si       0.00150000       2.17092000       4.06458000
Si       1.50258000       3.75808000      -2.93120000
Si      -2.30589000       4.56439000      -0.09624000
Si       0.00150000       4.51104000       1.96842000
Si       0.00150000      -2.16498000       4.06458000
Si       3.75661000       1.50404000      -2.93120000
Si      -1.49957000      -3.75214000      -2.93120000
Si       2.30889000      -4.55846000      -0.09624000
Si       0.00150000      -4.50511000       1.96842000
Si      -3.75361000      -1.49811000      -2.93120000
Si      -4.55992000       2.31036000      -0.09624000
Si      -3.75361000       1.50404000      -2.93120000
Si       4.56293000      -2.30442000      -0.09624000
Si       2.16945000       0.00297100       4.06458000
Si       3.75661000      -1.49811000      -2.93120000
Si       4.56293000       2.31036000      -0.09624000
Si       4.50958000       0.00297000       1.96842000
O       -4.75150000       1.90781000      -4.12818000
O        4.51443000      -1.54661000      -1.51372000
O        4.15916000      -1.30653000       1.10075000
O        6.06400000      -2.83307000       0.15862000
O        3.57474000       0.00297000       3.27995000
O        2.47379000       0.00296900       5.64528000
O        4.75450000      -1.90187000      -4.12818000
O       -1.30800000       4.16063000       1.10075000
O       -6.06100000       0.00297600       2.38651100
O        1.55108000      -4.50996000      -1.51372000
O       -4.15616000       1.31247100       1.10075000
O       -3.57174000       0.00297100       3.27995000
O       -2.47079000       0.00297100       5.64528000
O       -1.54807000       4.51589000      -1.51372000
O       -1.31285000      -1.31138000       3.69231000
O       -1.31285000       1.31732000       3.69231000
O       -1.90334000       4.75597000      -4.12818000
O        0.00150000       3.22943000      -3.18606000
O       -4.75150000      -1.90187000      -4.12818000
O       -3.22496000       0.00297000      -3.18606000
O        4.15916000       1.31247000       1.10075000
O        6.06400000       2.83901000       0.15862000
O        6.06400000       0.00297000       2.38651000
O       -2.83454000       6.06547000       0.15862000
O       -3.57052000       3.57499000      -0.12201000
O        0.00150000       6.06547000       2.38651000
O        0.00150000      -3.57027000       3.27995000
O        0.00150000      -2.46932000       5.64528000
O       -2.48897000       2.49344000      -2.90542900
O        1.55108000       4.51589000      -1.51372000
O        1.31100000       4.16063000       1.10075000
O        2.83754000       6.06547000       0.15862000
O        3.57353000       3.57499000      -0.12201000
O       -4.51142000      -1.54661000      -1.51372000
O       -4.15616000      -1.30653000       1.10075000
O       -6.06100000      -2.83307000       0.15862000
O       -3.57052000      -3.56906000      -0.12201000
O        1.90634000      -4.75003000      -4.12818000
O       -4.51142000       1.55254000      -1.51372000
O       -6.06100000       2.83901000       0.15862000
O        1.31585000      -1.31138000       3.69231000
O        4.51443000       1.55254000      -1.51372000
O        4.75450000       1.90781000      -4.12818000
O        3.22796000       0.00297000      -3.18606000
O       -1.90334000      -4.75003000      -4.12818000
O       -2.48897000      -2.48751000      -2.90543000
O        1.31100000      -4.15469000       1.10075000
O        2.83754000      -6.05953000       0.15862000
O        3.57353000      -3.56906000      -0.12201100
O        0.00150000      -6.05953000       2.38651000
O        0.00150000      -3.22349000      -3.18606000
O        2.49198000      -2.48751000      -2.90543000
O       -1.54807000      -4.50996000      -1.51372000
O       -1.30800000      -4.15469000       1.10075000
O       -2.83454000      -6.05953000       0.15862000
O        0.00150000       3.57621000       3.27995000
O        0.00150000       2.47526000       5.64528000
O        1.31585000       1.31732000       3.69231000
O        1.90634000       4.75597000      -4.12818000
O        2.49198000       2.49344000      -2.90543000
H       -5.35897000       2.15360000      -4.85686000
H        6.97672000      -3.15451000       0.31359000
H        2.65907000       0.00297000       6.60761000
H        5.36197000      -2.14766000      -4.85686000
H       -7.00737000       0.00296800       2.64104000
H       -2.65607000       0.00297000       6.60761000
H       -2.14913000       5.36344000      -4.85686000
H       -5.35897000      -2.14766000      -4.85686000
H        6.97672000       3.16045000       0.31359000
H        7.01037000       0.00297000       2.64104000
H       -3.15598000       6.97819000       0.31359000
H        0.00150000       7.01184000       2.64104000
H        0.00150000      -2.65460000       6.60761000
H        3.15898000       6.97819000       0.31359000
H       -6.97372000      -3.15451000       0.31359000
H        2.15213000      -5.35750000      -4.85686000
H       -6.97372000       3.16045000       0.31359000
H        5.36197000       2.15360000      -4.85686000
H       -2.14913000      -5.35750000      -4.85686000
H        3.15898000      -6.97225000       0.31359000
H        0.00150000      -7.00590000       2.64104000
H       -3.15598000      -6.97225000       0.31359000
H        0.00150000       2.66054000       6.60761000
H        2.15213000       5.36344000      -4.85686000
