55
Properties=species:S:1:pos:R:3 pbc="F F F"
Sr       0.02700100       0.40500700       0.14273400
Si       0.57124000       0.31272000       3.43444000
Si       0.57124000      -0.30493000      -3.43665000
Si      -2.87999000      -1.53043000       0.24101000
Al      -0.46226000       2.28038000      -2.15407000
Si      -1.19692000      -2.62162000      -2.15407000
Si      -1.19692000       2.62940000       2.15187000
Si      -0.46226000      -2.27260000       2.15187000
Si      -2.87999000       1.53822000      -0.24321000
Si       2.76690000      -0.94513000      -1.24166000
Si       1.22080000      -3.36378000      -0.24321000
Si       1.22080000       3.37157000       0.24101000
Al       2.76690000       0.95292000       1.23946000
O       -1.74480000       3.66863000       3.28037000
O       -2.42757000       2.19705000       1.17543000
O       -0.03683000      -3.34809000      -1.27567000
O       -0.59301000       1.30488000       2.87619000
O        0.85970000       0.64115000       5.00115000
O       -0.59301000      -1.29710000      -2.87840000
O        0.08561000      -1.23337000       3.28037000
O        1.93678000       0.53625000       2.57606000
O        0.85970000      -0.63337000      -5.00335000
O        0.08561000       1.24116000      -3.28258000
O        1.93678000      -0.52846000      -2.57826000
O       -4.10857000      -2.39515000       0.87129000
O       -2.42757000      -2.18926000      -1.17763000
O       -1.62236000      -1.54612000       1.27347000
O       -3.36561000       0.00389000      -0.00110000
O       -1.06618000       3.60490000      -2.87840000
O        0.76839000       2.71274000      -1.17763000
O       -1.62236000       1.55391000      -1.27567000
O       -1.74480000      -3.66084000      -3.28258000
O       -0.03683000       3.35588000       1.27347000
O       -1.06618000      -3.59712000       2.87619000
O        0.76839000      -2.70495000       1.17543000
O       -4.10857000       2.40293000      -0.87349000
O        2.31034000       0.00389000      -0.00110000
O        4.35866000      -0.75886000      -1.51778000
O        2.44938000      -2.49907000      -0.87349000
O        1.70642000      -4.89811000      -0.00110000
O        2.44938000       2.50685000       0.87129000
O        1.70642000       4.90589000      -0.00110000
O        4.35866000       0.76664000       1.51558000
H       -2.07440000       4.29382000       3.95927000
H        1.03350000       0.83904000       5.94510000
H        1.03350000      -0.83125000      -5.94730000
H       -4.84757000      -2.91528000       1.25041000
H       -1.43017000       4.40322000      -3.31496000
H       -2.07440000      -4.28603000      -3.96148000
H       -1.43017000      -4.39544000       3.31276000
H       -4.84757000       2.92307000      -1.25262000
H        5.31788000      -0.64660000      -1.68418000
H        1.99885000      -5.82203000       0.14469000
H        1.99885000       5.82982000      -0.14689000
H        5.31788000       0.65439000       1.68198000
