55
Properties=species:S:1:pos:R:3 pbc="F F F"
Ba      -0.00270300      -0.09810100      -0.57303700
Al       1.54003000       0.46626000      -3.08495000
Si      -3.10058000      -1.20669000      -0.97074000
Si       1.54277000       2.88681000      -1.12797000
Si      -1.54003000      -0.46413100       3.07085000
Si       3.10058000       1.20882000       0.95665000
Si       3.10058000      -1.20669000      -0.97074000
Al      -1.54003000       0.46626000      -3.08495000
Si       1.54277000      -2.88468000       1.11387000
Si      -3.10058000       1.20882000       0.95665000
Si       1.54003000      -0.46413000       3.07085000
Si      -1.54277000       2.88681000      -1.12797000
Si      -1.54277000      -2.88468000       1.11387000
O        3.55055000       0.00107000      -0.00705000
O        2.00368000      -2.11439000      -0.22161000
O        4.38485000       2.10896000       1.32289000
O        0.00000000       0.00611000      -2.99246000
O        1.98180000       0.55325000      -4.63130000
O       -2.46733000      -0.60785000      -2.32472000
O        1.71236000       1.91103000      -2.39871000
O        2.46733000      -0.60785000      -2.32472000
O       -2.00368000      -2.11439000      -0.22161000
O       -4.38485000      -2.10682000      -1.33698000
O       -3.55055000       0.00107000      -0.00705000
O        2.00368000       2.11652000       0.20752000
O        0.00000000       3.32427000      -0.99109000
O        2.45365000       4.19668000      -1.33698000
O        0.00000000      -0.00398000       2.97837000
O       -1.98180000      -0.55112000       4.61720000
O       -1.71236000      -1.90890000       2.38461000
O       -2.46733000       0.60998000       2.31063000
O        2.46733000       0.60998000       2.31063000
O        4.38485000      -2.10682000      -1.33698000
O       -1.98180000       0.55325000      -4.63130000
O       -1.71236000       1.91103000      -2.39871000
O        1.71236000      -1.90890000       2.38461000
O        0.00000000      -3.32214000       0.97699000
O        2.45365000      -4.19454000       1.32289000
O       -2.00368000       2.11652000       0.20752000
O       -4.38485000       2.10896000       1.32289000
O        1.98180000      -0.55112000       4.61720000
O       -2.45365000       4.19668000      -1.33698000
O       -2.45365000      -4.19454000       1.32289000
H        5.16633000       2.65669000       1.54575000
H        2.25060000       0.60618000      -5.57222000
H       -5.16633000      -2.65456000      -1.55984000
H        3.00842000       4.99444000      -1.46428000
H       -2.25061000      -0.60405000       5.55813000
H        5.16633000      -2.65456000      -1.55984000
H       -2.25061000       0.60618000      -5.57222000
H        3.00842000      -4.99231000       1.45019000
H       -5.16633000       2.65669000       1.54575000
H        2.25060000      -0.60405000       5.55813000
H       -3.00842000       4.99444000      -1.46428000
H       -3.00842000      -4.99231000       1.45019000
