55
Properties=species:S:1:pos:R:3 pbc="F F F"
Rb      -0.10746700       0.21099100       0.34323700
Al       0.56915000       0.30919900       3.43969900
Si       0.56918300      -0.30845300      -3.43138200
Si      -2.88207500      -1.53395300       0.24626000
Si      -0.46435400       2.27685800      -2.14881800
Si      -1.19901200      -2.62513800      -2.14882000
Si      -1.19901300       2.62587900       2.15712100
Si      -0.46435000      -2.27611700       2.15711700
Si      -2.88207700       1.53470100      -0.23795900
Si       2.76480800      -0.94865000      -1.23641000
Si       1.21871000      -3.36729900      -0.23796100
Si       1.21870900       3.36804900       0.24626000
Si       2.76480600       0.94940200       1.24470900
O       -1.74688800       3.66511000       3.28563000
O       -2.42966000       2.19352900       1.18068000
O       -0.03892000      -3.35161000      -1.27041900
O       -0.59510200       1.30136200       2.88144700
O        0.85761000       0.63762900       5.00640100
O       -0.59509300      -1.30062000      -2.87314100
O        0.08353100      -1.23689100       3.28563100
O        1.93468700       0.53272900       2.58130700
O        0.85758700      -0.63689600      -4.99810300
O        0.08352300       1.23764000      -3.27732300
O        1.93468600      -0.53198000      -2.57301000
O       -4.11066200      -2.39866800       0.87654200
O       -2.42966100      -2.19278000      -1.17238000
O       -1.62444400      -1.54963700       1.27871700
O       -3.36770100       0.00036900       0.00414900
O       -1.06826600       3.60138300      -2.87313900
O        0.76629800       2.70921700      -1.17237700
O       -1.62444600       1.55039000      -1.27041600
O       -1.74689000      -3.66436000      -3.27732000
O       -0.03891900       3.35236000       1.27872000
O       -1.06827000      -3.60064100       2.88145100
O        0.76629900      -2.70846600       1.18067700
O       -4.11066100       2.39941000      -0.86824100
O        2.30824500       0.00036800       0.00415100
O        4.35657100      -0.76238000      -1.51253000
O        2.44729100      -2.50259000      -0.86823900
O        1.70434000      -4.90163000       0.00415000
O        2.44729100       2.50333000       0.87654000
O        1.70434100       4.90237000       0.00415000
O        4.35657100       0.76312000       1.52083000
H       -2.07649000       4.29030000       3.96453000
H        1.03142000       0.83552000       5.95035000
H        1.03142100      -0.83476600      -5.94205100
H       -4.84966100      -2.91880000       1.25567000
H       -1.43226100       4.39970000      -3.30971100
H       -2.07649000      -4.28955000      -3.95622000
H       -1.43226000      -4.39896100       3.31801000
H       -4.84966000       2.91955000      -1.24736000
H        5.31579000      -0.65012000      -1.67893000
H        1.99676000      -5.82555000       0.14994000
H        1.99676000       5.82630000      -0.14164000
H        5.31579100       0.65087000       1.68723000
