145
Properties=species:S:1:pos:R:3 pbc="F F F"
Ba       0.04245100      -0.00099300      -0.00922700
Si      -3.34543000       1.55498000       5.53522000
Si       3.75694000      -3.34961000       1.55395000
Si      -3.74857000       3.34961000      -1.55601000
Al       5.54043000       1.55498000       3.34858000
Si      -5.53206000      -1.55498000       3.34858000
Al       3.35379000      -1.55498000      -5.53727000
Si       1.55916000       3.34961000       3.75173000
Si      -1.55080000      -3.34961000      -3.75378000
Si       3.75694000      -3.34961000      -1.55601000
Si       3.35379000       1.55498000      -5.53727000
Si      -3.74857000       3.34961000       1.55395000
Si       5.54043000       1.55498000      -3.35064000
Si      -5.53206000       1.55498000      -3.35064000
Si      -3.34543000      -1.55498000       5.53522000
Si       1.55916000       3.34961000      -3.75378000
Si      -3.74857000      -3.34961000       1.55395000
Si      -1.55080000      -3.34961000       3.75173000
Si       5.54043000      -1.55498000       3.34858000
Si       3.35379000       1.55498000       5.53522000
Si      -5.53206000       1.55498000       3.34858000
Si      -3.34543000      -1.55498000      -5.53727000
Si       1.55916000      -3.34961000       3.75173000
Si       3.75694000       3.34961000      -1.55601000
Si      -1.55080000       3.34961000      -3.75378000
Si      -3.34543000       1.55498000      -5.53727000
Si      -3.74857000      -3.34961000      -1.55601000
Si       5.54043000      -1.55498000      -3.35064000
Si      -5.53206000      -1.55498000      -3.35064000
Si       1.55916000      -3.34961000      -3.75378000
Si       3.35379000      -1.55498000       5.53522000
Si       3.75694000       3.34961000       1.55395000
Si      -1.55080000       3.34961000       3.75173000
O       -6.92355000       2.36126000       3.43776000
O        1.70964000       4.74111000      -4.54892000
O        2.36545000       3.43879000      -2.36229000
O       -3.44390000      -3.06909000      -0.00103000
O       -4.54371000      -4.74111000       1.70443000
O       -2.35708000      -3.43879000       2.36024000
O        0.00418000      -3.06909000       3.44705000
O       -1.70128000      -4.74111000       4.54687000
O       -2.14715000      -2.15133000      -4.64553000
O       -4.73692000      -1.70546000       4.74008000
O       -4.64032000      -2.15133000       2.15030000
O       -2.35708000      -3.43879000      -2.36229000
O        4.55208000      -4.74111000      -1.70649000
O        4.64868000      -2.15133000      -2.15236000
O        2.36545000      -3.43879000      -2.36229000
O        4.74529000       1.70546000      -4.74213000
O       -5.83674000       0.00000000       3.06806000
O       -3.06490000       0.00000000       5.83989000
O       -4.73692000       1.70546000       4.74008000
O        3.45226000      -3.06909000      -0.00103000
O       -2.14715000       2.15133000       4.64347000
O       -3.43461000       2.36126000       6.92671000
O        4.55208000      -4.74111000       1.70443000
O        4.64868000      -2.15133000       2.15030000
O       -6.92355000       2.36126000      -3.43982000
O       -2.14715000      -2.15133000       4.64347000
O        1.70964000      -4.74111000      -4.54892000
O        3.07327000       0.00000000      -5.84195000
O        4.74529000      -1.70546000      -4.74213000
O        2.15551000      -2.15133000      -4.64553000
O        3.44297000      -2.36126000      -6.92876000
O        0.00418000       3.06909000       3.44705000
O        1.70964000       4.74111000       4.54687000
O        2.15551000       2.15133000       4.64347000
O        2.36545000       3.43879000       2.36024000
O        0.00418000      -3.06909000      -3.44911000
O       -1.70128000      -4.74111000      -4.54892000
O        3.44297000      -2.36126000       6.92671000
O        4.55208000       4.74111000       1.70443000
O       -1.70128000       4.74111000       4.54687000
O        2.36545000      -3.43879000       2.36024000
O       -3.44390000       3.06909000      -0.00103000
O       -4.54371000       4.74111000      -1.70649000
O       -4.64032000       2.15133000      -2.15236000
O       -2.35708000       3.43879000      -2.36229000
O        5.84510000       0.00000000       3.06806000
O        4.74529000       1.70546000       4.74008000
O        4.64868000       2.15133000       2.15030000
O        6.93192000       2.36126000       3.43776000
O       -6.92355000      -2.36126000       3.43776000
O        1.70964000      -4.74111000       4.54687000
O        2.15551000      -2.15133000       4.64347000
O        3.45226000       3.06909000      -0.00103000
O       -3.06490000       0.00000000      -5.84195000
O       -4.73692000      -1.70546000      -4.74213000
O       -3.43461000      -2.36126000      -6.92876000
O        4.74529000      -1.70546000       4.74008000
O        6.93192000      -2.36126000       3.43776000
O        3.07327000       0.00000000       5.83989000
O        3.44297000       2.36126000       6.92671000
O       -3.43461000      -2.36126000       6.92671000
O        0.00418000       3.06909000      -3.44911000
O        2.15551000       2.15133000      -4.64553000
O        3.44297000       2.36126000      -6.92876000
O       -4.54371000       4.74111000       1.70443000
O       -4.64032000       2.15133000       2.15030000
O       -2.35708000       3.43879000       2.36024000
O        5.84510000       0.00000000      -3.07011000
O        4.64868000       2.15133000      -2.15236000
O        6.93192000       2.36126000      -3.43982000
O       -5.83674000       0.00000000      -3.07011000
O       -4.73692000       1.70546000      -4.74213000
O        4.55208000       4.74111000      -1.70649000
O       -1.70128000       4.74111000      -4.54892000
O       -2.14715000       2.15133000      -4.64553000
O       -3.43461000       2.36126000      -6.92876000
O       -4.54371000      -4.74111000      -1.70649000
O       -4.64032000      -2.15133000      -2.15236000
O        6.93192000      -2.36126000      -3.43982000
O       -6.92355000      -2.36126000      -3.43982000
H       -7.77019000       2.85184000       3.49202000
H        1.80126000       5.58826000      -5.03301000
H       -5.02780000      -5.58826000       1.79605000
H       -1.79289000      -5.58826000       5.03095000
H        5.03616000      -5.58826000      -1.79810000
H       -3.48886000       2.85184000       7.77334000
H        5.03616000      -5.58826000       1.79605000
H       -7.77019000       2.85184000      -3.49407000
H        1.80126000      -5.58826000      -5.03301000
H        3.49723000      -2.85184000      -7.77540000
H        1.80126000       5.58826000       5.03095000
H       -1.79289000      -5.58826000      -5.03301000
H        3.49723000      -2.85184000       7.77334000
H        5.03616000       5.58826000       1.79605000
H       -1.79289000       5.58826000       5.03095000
H       -5.02780000       5.58826000      -1.79810000
H        7.77855000       2.85184000       3.49202000
H       -7.77019000      -2.85184000       3.49202000
H        1.80126000      -5.58826000       5.03095000
H       -3.48886000      -2.85184000      -7.77540000
H        7.77855000      -2.85184000       3.49202000
H        3.49723000       2.85184000       7.77334000
H       -3.48886000      -2.85184000       7.77334000
H        3.49723000       2.85184000      -7.77540000
H       -5.02780000       5.58826000       1.79605000
H        7.77855000       2.85184000      -3.49407000
H        5.03616000       5.58826000      -1.79810000
H       -1.79289000       5.58826000      -5.03301000
H       -3.48886000       2.85184000      -7.77540000
H       -5.02780000      -5.58826000      -1.79810000
H        7.77855000      -2.85184000      -3.49407000
H       -7.77019000      -2.85184000      -3.49407000
