55
Properties=species:S:1:pos:R:3 pbc="F F F"
Sr      -0.66565300      -0.01859200      -0.01397400
Si       1.53254000       0.46520000      -3.07790000
Al      -3.10806000      -1.20775000      -0.96369000
Si       1.53528000       2.88574000      -1.12092000
Si      -1.54752000      -0.46520000       3.07790000
Si       3.09309000       1.20775000       0.96369000
Si       3.09309000      -1.20775000      -0.96369000
Si      -1.54752000       0.46520000      -3.07790000
Si       1.53528000      -2.88574000       1.12092000
Al      -3.10806000       1.20775000       0.96369000
Si       1.53254000      -0.46520000       3.07790000
Si      -1.55025000       2.88574000      -1.12092000
Si      -1.55025000      -2.88574000       1.12092000
O        3.54306000       0.00000000       0.00000000
O        1.99620000      -2.11545000      -0.21456000
O        4.37736000       2.10789000       1.32993000
O       -0.00749000       0.00504000      -2.98542000
O        1.97431000       0.55219000      -4.62425000
O       -2.47482000      -0.60892000      -2.31767000
O        1.70487000       1.90996000      -2.39166000
O        2.45985000      -0.60892000      -2.31767000
O       -2.01117000      -2.11545000      -0.21456000
O       -4.39233000      -2.10789000      -1.32993000
O       -3.55803000       0.00000000       0.00000000
O        1.99620000       2.11546000       0.21457000
O       -0.00749000       3.32321000      -0.98404000
O        2.44617000       4.19561000      -1.32993000
O       -0.00749000      -0.00504000       2.98542000
O       -1.98928000      -0.55219000       4.62425000
O       -1.71985000      -1.90996000       2.39166000
O       -2.47482000       0.60892000       2.31767000
O        2.45985000       0.60892000       2.31767000
O        4.37736000      -2.10789000      -1.32993000
O       -1.98928000       0.55219000      -4.62425000
O       -1.71985000       1.90996000      -2.39166000
O        1.70487000      -1.90996000       2.39166000
O       -0.00749000      -3.32320000       0.98404000
O        2.44617000      -4.19561000       1.32993000
O       -2.01117000       2.11546000       0.21457000
O       -4.39233000       2.10789000       1.32993000
O        1.97431000      -0.55219000       4.62425000
O       -2.46114000       4.19561000      -1.32993000
O       -2.46114000      -4.19561000       1.32993000
H        5.15884000       2.65563000       1.55279000
H        2.24312000       0.60512000      -5.56518000
H       -5.17382000      -2.65563000      -1.55279000
H        3.00094000       4.99337000      -1.45723000
H       -2.25809000      -0.60512000       5.56518000
H        5.15884000      -2.65563000      -1.55279000
H       -2.25809000       0.60512000      -5.56518000
H        3.00094000      -4.99337000       1.45723000
H       -5.17382000       2.65563000       1.55279000
H        2.24312000      -0.60512000       5.56518000
H       -3.01591000       4.99337000      -1.45723000
H       -3.01591000      -4.99337000       1.45723000
