109
Properties=species:S:1:pos:R:3 pbc="F F F"
K       -0.11200600       0.28358600      -0.41420700
Si      -2.16893000       0.00244000       4.06273000
Al      -1.50205000       3.75756000      -2.93304000
Si       2.30641000       4.56387000      -0.09808000
Si      -4.56240000      -2.30494000      -0.09808000
Si      -4.50905000       0.00243500       1.96657900
Si       1.50010000      -3.75267000      -2.93304000
Si      -2.30836000      -4.55898000      -0.09808000
Si      -0.00098000       2.17039000       4.06273000
Si       1.50010000       3.75756000      -2.93304000
Si      -2.30836000       4.56387000      -0.09808000
Si      -0.00097900       4.51052000       1.96658000
Si      -0.00098000      -2.16551000       4.06273000
Si       3.75414000       1.50352000      -2.93304000
Si      -1.50205000      -3.75267000      -2.93304000
Si       2.30641000      -4.55898000      -0.09808000
Si      -0.00098000      -4.50563000       1.96658000
Si      -3.75609000      -1.49863000      -2.93304000
Si      -4.56240000       2.30983000      -0.09808000
Si      -3.75609000       1.50352000      -2.93304000
Si       4.56045000      -2.30494000      -0.09808000
Si       2.16697000       0.00244000       4.06273000
Si       3.75414000      -1.49863000      -2.93304000
Si       4.56044900       2.30983300      -0.09807700
Si       4.50710000       0.00244000       1.96658000
O       -4.75398000       1.90728000      -4.13003000
O        4.51195000      -1.54713000      -1.51556000
O        4.15668000      -1.30706000       1.09890000
O        6.06152000      -2.83359000       0.15678000
O        3.57226000       0.00244000       3.27810000
O        2.47131000       0.00244000       5.64344000
O        4.75202000      -1.90239000      -4.13003000
O       -1.31048000       4.16011000       1.09890000
O       -6.06348000       0.00244400       2.38466000
O        1.54860000      -4.51048000      -1.51556000
O       -4.15864000       1.31194100       1.09890000
O       -3.57421000       0.00244100       3.27810000
O       -2.47326000       0.00244000       5.64344000
O       -1.55055000       4.51537000      -1.51556000
O       -1.31533000      -1.31191000       3.69046000
O       -1.31533000       1.31679000       3.69046000
O       -1.90581000       4.75544000      -4.13003000
O       -0.00098000       3.22891000      -3.18790000
O       -4.75398000      -1.90239000      -4.13003000
O       -3.22744000       0.00244000      -3.18790000
O        4.15668000       1.31194000       1.09890000
O        6.06152100       2.83847700       0.15677800
O        6.06152000       0.00244000       2.38466000
O       -2.83701000       6.06494000       0.15678000
O       -3.57300000       3.57447000      -0.12385000
O       -0.00098100       6.06494000       2.38466000
O       -0.00098000      -3.57079000       3.27810000
O       -0.00098000      -2.46984000       5.64344000
O       -2.49145000       2.49292000      -2.90727000
O        1.54860000       4.51537000      -1.51556000
O        1.30852000       4.16011000       1.09890000
O        2.83506000       6.06494000       0.15678000
O        3.57105000       3.57447000      -0.12385000
O       -4.51390000      -1.54713000      -1.51556000
O       -4.15864000      -1.30706000       1.09890000
O       -6.06348000      -2.83359000       0.15678000
O       -3.57300000      -3.56958000      -0.12385000
O        1.90386000      -4.75056000      -4.13003000
O       -4.51390000       1.55202000      -1.51556000
O       -6.06348000       2.83848000       0.15678000
O        1.31337000      -1.31191000       3.69046000
O        4.51195000       1.55202000      -1.51556000
O        4.75202000       1.90728000      -4.13003000
O        3.22549000       0.00244000      -3.18790000
O       -1.90581000      -4.75056000      -4.13003000
O       -2.49145000      -2.48803000      -2.90727000
O        1.30852000      -4.15522000       1.09890000
O        2.83506000      -6.06006000       0.15678000
O        3.57105000      -3.56958000      -0.12385000
O       -0.00098000      -6.06006000       2.38466000
O       -0.00098000      -3.22402000      -3.18790000
O        2.48950000      -2.48803000      -2.90727000
O       -1.55055000      -4.51048000      -1.51556000
O       -1.31048000      -4.15522000       1.09890000
O       -2.83701000      -6.06006000       0.15678000
O       -0.00098000       3.57568000       3.27810000
O       -0.00098000       2.47473000       5.64344000
O        1.31337000       1.31679000       3.69046000
O        1.90386000       4.75544000      -4.13003000
O        2.48950000       2.49292000      -2.90727000
H       -5.36145000       2.15308000      -4.85870000
H        6.97424000      -3.15504000       0.31175000
H        2.65659000       0.00244000       6.60576000
H        5.35949000      -2.14819000      -4.85870000
H       -7.00984000       0.00243800       2.63920000
H       -2.65854000       0.00244000       6.60576000
H       -2.15161000       5.36292000      -4.85870000
H       -5.36145000      -2.14819000      -4.85870000
H        6.97424000       3.15992100       0.31175000
H        7.00789000       0.00244000       2.63920000
H       -3.15846000       6.97767000       0.31175000
H       -0.00097900       7.01131000       2.63920000
H       -0.00098000      -2.65512000       6.60576000
H        3.15650000       6.97767000       0.31175000
H       -6.97620000      -3.15504000       0.31175000
H        2.14965000      -5.35803000      -4.85870000
H       -6.97620000       3.15992000       0.31175000
H        5.35949000       2.15308000      -4.85870000
H       -2.15161000      -5.35803000      -4.85870000
H        3.15650000      -6.97278000       0.31175000
H       -0.00098000      -7.00642000       2.63920000
H       -3.15846000      -6.97278000       0.31175000
H       -0.00098000       2.66001000       6.60576000
H        2.14965000       5.36292000      -4.85870000
