145
Properties=species:S:1:pos:R:3 pbc="F F F"
Ba       0.00743200      -0.02600800       0.03133500
Si      -3.35045000       1.55413000       5.53855000
Al       3.75192000      -3.35046000       1.55729000
Si      -3.75360000       3.34877000      -1.55267000
Si       5.53540000       1.55413000       3.35192000
Si      -5.53708000      -1.55582000       3.35192000
Si       3.34877000      -1.55582000      -5.53394000
Si       1.55414000       3.34877000       3.75506000
Si      -1.55582000      -3.35046000      -3.75045000
Si       3.75192000      -3.35046000      -1.55267000
Si       3.34877000       1.55413000      -5.53394000
Si      -3.75360000       3.34877000       1.55729000
Si       5.53540000       1.55413000      -3.34731000
Si      -5.53708000       1.55413000      -3.34731000
Si      -3.35045000      -1.55582000       5.53855000
Si       1.55414000       3.34877000      -3.75045000
Si      -3.75360000      -3.35046000       1.55729000
Si      -1.55582000      -3.35046000       3.75506000
Si       5.53540000      -1.55582000       3.35192000
Si       3.34877000       1.55413000       5.53855000
Al      -5.53708000       1.55413000       3.35192000
Si      -3.35045000      -1.55582000      -5.53394000
Si       1.55414000      -3.35046000       3.75506000
Si       3.75192000       3.34877000      -1.55267000
Si      -1.55582000       3.34877000      -3.75045000
Si      -3.35045000       1.55413000      -5.53394000
Si      -3.75360000      -3.35046000      -1.55267000
Si       5.53540000      -1.55582000      -3.34731000
Si      -5.53708000      -1.55582000      -3.34731000
Si       1.55414000      -3.35046000      -3.75045000
Si       3.34877000      -1.55582000       5.53855000
Si       3.75192000       3.34877000       1.55729000
Si      -1.55582000       3.34877000       3.75506000
O       -6.92858000       2.36042000       3.44110000
O        1.70462000       4.74026000      -4.54559000
O        2.36042000       3.43794000      -2.35896000
O       -3.44892000      -3.06993000       0.00231000
O       -4.54873000      -4.74195000       1.70777000
O       -2.36210000      -3.43963000       2.36357000
O       -0.00084000      -3.06993000       3.45038000
O       -1.70630000      -4.74195000       4.55020000
O       -2.15217000      -2.15218000      -4.64219000
O       -4.74195000      -1.70630000       4.74341000
O       -4.64534000      -2.15218000       2.15364000
O       -2.36210000      -3.43963000      -2.35896000
O        4.54705000      -4.74195000      -1.70315000
O        4.64366000      -2.15218000      -2.14902000
O        2.36042000      -3.43963000      -2.35896000
O        4.74027000       1.70462000      -4.73880000
O       -5.84176000      -0.00084000       3.07139000
O       -3.06993000      -0.00084000       5.84323000
O       -4.74195000       1.70462000       4.74341000
O        3.44724000      -3.06993000       0.00231000
O       -2.15217000       2.15049000       4.64681000
O       -3.43963000       2.36042000       6.93004000
O        4.54705000      -4.74195000       1.70777000
O        4.64366000      -2.15218000       2.15364000
O       -6.92858000       2.36042000      -3.43648000
O       -2.15217000      -2.15218000       4.64681000
O        1.70462000      -4.74195000      -4.54559000
O        3.06825000      -0.00084000      -5.83862000
O        4.74027000      -1.70630000      -4.73880000
O        2.15049000      -2.15218000      -4.64219000
O        3.43795000      -2.36211000      -6.92543000
O       -0.00084000       3.06824000       3.45038000
O        1.70462000       4.74026000       4.55020000
O        2.15049000       2.15049000       4.64681000
O        2.36042000       3.43794000       2.36357000
O       -0.00084000      -3.06993000      -3.44577000
O       -1.70630000      -4.74195000      -4.54559000
O        3.43795000      -2.36211000       6.93004000
O        4.54705000       4.74026000       1.70777000
O       -1.70630000       4.74026000       4.55020000
O        2.36042000      -3.43963000       2.36357000
O       -3.44892000       3.06824000       0.00231000
O       -4.54873000       4.74026000      -1.70315000
O       -4.64534000       2.15049000      -2.14902000
O       -2.36210000       3.43794000      -2.35896000
O        5.84008000      -0.00084000       3.07139000
O        4.74027000       1.70462000       4.74341000
O        4.64366000       2.15049000       2.15364000
O        6.92690000       2.36042000       3.44110000
O       -6.92858000      -2.36211000       3.44110000
O        1.70462000      -4.74195000       4.55020000
O        2.15049000      -2.15218000       4.64681000
O        3.44724000       3.06824000       0.00231000
O       -3.06993000      -0.00084000      -5.83862000
O       -4.74195000      -1.70630000      -4.73880000
O       -3.43963000      -2.36211000      -6.92543000
O        4.74027000      -1.70630000       4.74341000
O        6.92690000      -2.36211000       3.44110000
O        3.06825000      -0.00084000       5.84323000
O        3.43795000       2.36042000       6.93004000
O       -3.43963000      -2.36211000       6.93004000
O       -0.00084000       3.06824000      -3.44577000
O        2.15049000       2.15049000      -4.64219000
O        3.43795000       2.36042000      -6.92543000
O       -4.54873000       4.74026000       1.70777000
O       -4.64534000       2.15049000       2.15364000
O       -2.36210000       3.43794000       2.36357000
O        5.84008000      -0.00084000      -3.06678000
O        4.64366000       2.15049000      -2.14902000
O        6.92690000       2.36042000      -3.43648000
O       -5.84176000      -0.00084000      -3.06678000
O       -4.74195000       1.70462000      -4.73880000
O        4.54705000       4.74026000      -1.70315000
O       -1.70630000       4.74026000      -4.54559000
O       -2.15217000       2.15049000      -4.64219000
O       -3.43963000       2.36042000      -6.92543000
O       -4.54873000      -4.74195000      -1.70315000
O       -4.64534000      -2.15218000      -2.14902000
O        6.92690000      -2.36211000      -3.43648000
O       -6.92858000      -2.36211000      -3.43648000
H       -7.77521000       2.85099000       3.49535000
H        1.79624000       5.58741000      -5.02967000
H       -5.03282000      -5.58910000       1.79938000
H       -1.79791000      -5.58910000       5.03429000
H        5.03114000      -5.58910000      -1.79477000
H       -3.49388000       2.85099000       7.77668000
H        5.03114000      -5.58910000       1.79938000
H       -7.77521000       2.85099000      -3.49074000
H        1.79624000      -5.58910000      -5.02967000
H        3.49221000      -2.85268000      -7.77206000
H        1.79624000       5.58741000       5.03429000
H       -1.79791000      -5.58910000      -5.02967000
H        3.49221000      -2.85268000       7.77668000
H        5.03114000       5.58741000       1.79938000
H       -1.79791000       5.58741000       5.03429000
H       -5.03282000       5.58741000      -1.79477000
H        7.77353000       2.85099000       3.49535000
H       -7.77521000      -2.85268000       3.49535000
H        1.79624000      -5.58910000       5.03429000
H       -3.49388000      -2.85268000      -7.77206000
H        7.77353000      -2.85268000       3.49535000
H        3.49221000       2.85099000       7.77668000
H       -3.49388000      -2.85268000       7.77668000
H        3.49221000       2.85099000      -7.77206000
H       -5.03282000       5.58741000       1.79938000
H        7.77353000       2.85099000      -3.49074000
H        5.03114000       5.58741000      -1.79477000
H       -1.79791000       5.58741000      -5.02967000
H       -3.49388000       2.85099000      -7.77206000
H       -5.03282000      -5.58910000      -1.79477000
H        7.77353000      -2.85268000      -3.49074000
H       -7.77521000      -2.85268000      -3.49074000
