55
Properties=species:S:1:pos:R:3 pbc="F F F"
Sr      -0.09135900       0.08105200       0.24193700
Si       0.56832000       0.30812000       3.43733000
Si       0.56831500      -0.30953100      -3.43376100
Al      -2.88291000      -1.53503000       0.24390000
Si      -0.46518000       2.27578000      -2.15118000
Si      -1.19984000      -2.62622000      -2.15118000
Si      -1.19984000       2.62480000       2.15476000
Si      -0.46518000      -2.27720000       2.15476000
Si      -2.88291000       1.53362000      -0.24032000
Si       2.76398000      -0.94973000      -1.23877000
Si       1.21788000      -3.36838000      -0.24032000
Si       1.21788000       3.36697000       0.24390000
Al       2.76398000       0.94832000       1.24235000
O       -1.74772000       3.66403000       3.28327000
O       -2.43049000       2.19245000       1.17832000
O       -0.03975000      -3.35269000      -1.27278000
O       -0.59593000       1.30028000       2.87908000
O        0.85678000       0.63655000       5.00404000
O       -0.59593000      -1.30170000      -2.87549900
O        0.08270000      -1.23797000       3.28327000
O        1.93386000       0.53165000       2.57895000
O        0.85678300      -0.63796900      -5.00046000
O        0.08270000       1.23656000      -3.27969000
O        1.93386000      -0.53306000      -2.57537000
O       -4.11149000      -2.39975000       0.87418000
O       -2.43049000      -2.19386000      -1.17474000
O       -1.62528000      -1.55072000       1.27636000
O       -3.36853000      -0.00071000       0.00179000
O       -1.06910000       3.60030000      -2.87550000
O        0.76547000       2.70814000      -1.17474000
O       -1.62528000       1.54931000      -1.27278000
O       -1.74772000      -3.66544000      -3.27969000
O       -0.03975000       3.35128000       1.27636000
O       -1.06910000      -3.60172000       2.87908000
O        0.76547000      -2.70955000       1.17832000
O       -4.11149000       2.39833000      -0.87060000
O        2.30742000      -0.00071000       0.00179000
O        4.35574000      -0.76346000      -1.51489000
O        2.44646000      -2.50367000      -0.87060000
O        1.70351000      -4.90271000       0.00179000
O        2.44646000       2.50225000       0.87418000
O        1.70351000       4.90129000       0.00179000
O        4.35574000       0.76204000       1.51847000
H       -2.07732000       4.28922000       3.96217000
H        1.03059000       0.83444000       5.94799000
H        1.03059000      -0.83585000      -5.94441000
H       -4.85049000      -2.91988000       1.25330000
H       -1.43309000       4.39862000      -3.31207000
H       -2.07732000      -4.29063000      -3.95859000
H       -1.43309000      -4.40004000       3.31565000
H       -4.85049000       2.91847000      -1.24973000
H        5.31496000      -0.65120000      -1.68129000
H        1.99593000      -5.82663000       0.14758000
H        1.99593000       5.82522000      -0.14400000
H        5.31496000       0.64979000       1.68487000
