55
Properties=species:S:1:pos:R:3 pbc="F F F"
Sr      -0.41424300       0.00000500      -0.00129300
Si       0.56150100       0.30883200       3.43554900
Si       0.56150200      -0.30883300      -3.43553900
Al      -2.88972000      -1.53433000       0.24211000
Si      -0.47200000       2.27649000      -2.15297000
Si      -1.20666000      -2.62551000      -2.15297000
Si      -1.20666000       2.62551000       2.15297000
Si      -0.47200000      -2.27649000       2.15297000
Al      -2.88972000       1.53433000      -0.24211000
Si       2.75717000      -0.94903100      -1.24056000
Si       1.21107000      -3.36767000      -0.24211000
Si       1.21107000       3.36767000       0.24211000
Si       2.75717000       0.94903100       1.24056000
O       -1.75454000       3.66474000       3.28148000
O       -2.43731000       2.19316000       1.17653000
O       -0.04656000      -3.35199000      -1.27457000
O       -0.60274000       1.30099000       2.87729000
O        0.84996900       0.63725800       5.00225000
O       -0.60274000      -1.30099000      -2.87729000
O        0.07588000      -1.23726000       3.28148000
O        1.92705000       0.53235900       2.57716000
O        0.84996900      -0.63725700      -5.00225100
O        0.07588000       1.23727000      -3.28148000
O        1.92705000      -0.53235900      -2.57716000
O       -4.11830000      -2.39904000       0.87239000
O       -2.43731000      -2.19315000      -1.17653000
O       -1.63209000      -1.55001000       1.27457000
O       -3.37535000       0.00000000       0.00000000
O       -1.07591000       3.60101000      -2.87729000
O        0.75865000       2.70885000      -1.17653000
O       -1.63209000       1.55001000      -1.27457000
O       -1.75454000      -3.66473000      -3.28148000
O       -0.04656000       3.35199000       1.27457000
O       -1.07591000      -3.60101000       2.87729000
O        0.75865000      -2.70884000       1.17653000
O       -4.11830000       2.39904000      -0.87239000
O        2.30060000       0.00000000       0.00000000
O        4.34892000      -0.76275000      -1.51668000
O        2.43965000      -2.50296000      -0.87239000
O        1.69669000      -4.90200000       0.00000000
O        2.43965000       2.50296000       0.87239000
O        1.69669000       4.90200000       0.00000000
O        4.34892000       0.76275000       1.51668000
H       -2.08413000       4.28992000       3.96038000
H        1.02377000       0.83514100       5.94620000
H        1.02377000      -0.83514100      -5.94620000
H       -4.85731000      -2.91917000       1.25152000
H       -1.43991000       4.39933000      -3.31386000
H       -2.08413000      -4.28992000      -3.96038000
H       -1.43991000      -4.39933000       3.31386000
H       -4.85731000       2.91917000      -1.25151000
H        5.30815000      -0.65050000      -1.68308000
H        1.98911000      -5.82592000       0.14579000
H        1.98911000       5.82592000      -0.14579000
H        5.30815000       0.65050000       1.68308000
