55
Properties=species:S:1:pos:R:3 pbc="F F F"
Ba      -0.47461300      -0.00399100       0.00129100
Si       1.53293000       0.46520000      -3.07790000
Al      -3.10768000      -1.20775000      -0.96369000
Si       1.53567000       2.88574000      -1.12092000
Si      -1.54713000      -0.46520000       3.07790000
Si       3.09348000       1.20775000       0.96369000
Si       3.09348000      -1.20775000      -0.96369000
Si      -1.54713000       0.46520000      -3.07790000
Si       1.53567000      -2.88574000       1.12092000
Al      -3.10768000       1.20775000       0.96369000
Si       1.53293000      -0.46520000       3.07790000
Si      -1.54987000       2.88574000      -1.12092000
Si      -1.54987000      -2.88574000       1.12092000
O        3.54345000       0.00000000       0.00000000
O        1.99658000      -2.11545000      -0.21456000
O        4.37775000       2.10789000       1.32993000
O       -0.00710000       0.00504000      -2.98542000
O        1.97470000       0.55219000      -4.62425000
O       -2.47443000      -0.60892000      -2.31767000
O        1.70526000       1.90996000      -2.39166000
O        2.46023000      -0.60892000      -2.31767000
O       -2.01078000      -2.11545000      -0.21456000
O       -4.39195000      -2.10789000      -1.32993000
O       -3.55765000       0.00000000       0.00000000
O        1.99658000       2.11546000       0.21457000
O       -0.00710000       3.32321000      -0.98404000
O        2.44655000       4.19561000      -1.32993000
O       -0.00710000      -0.00504000       2.98542000
O       -1.98890000      -0.55219000       4.62425000
O       -1.71946000      -1.90996000       2.39166000
O       -2.47443000       0.60892000       2.31767000
O        2.46023000       0.60892000       2.31767000
O        4.37775000      -2.10789000      -1.32993000
O       -1.98890000       0.55219000      -4.62425000
O       -1.71946000       1.90996000      -2.39166000
O        1.70526000      -1.90996000       2.39166000
O       -0.00710000      -3.32320000       0.98404000
O        2.44655000      -4.19561000       1.32993000
O       -2.01078000       2.11546000       0.21457000
O       -4.39195000       2.10789000       1.32993000
O        1.97470000      -0.55219000       4.62425000
O       -2.46075000       4.19561000      -1.32993000
O       -2.46075000      -4.19561000       1.32993000
H        5.15923000       2.65563000       1.55279000
H        2.24351000       0.60512000      -5.56518000
H       -5.17343000      -2.65563000      -1.55279000
H        3.00132000       4.99337000      -1.45723000
H       -2.25770000      -0.60512000       5.56518000
H        5.15923000      -2.65563000      -1.55279000
H       -2.25770000       0.60512000      -5.56518000
H        3.00132000      -4.99337000       1.45723000
H       -5.17343000       2.65563000       1.55279000
H        2.24351000      -0.60512000       5.56518000
H       -3.01552000       4.99337000      -1.45723000
H       -3.01552000      -4.99337000       1.45723000
