145
Properties=species:S:1:pos:R:3 pbc="F F F"
Ba       0.07712500       0.02338500       0.04046300
Si      -3.34524000       1.55729000       5.53855000
Si       3.75713000      -3.34731000       1.55729000
Si      -3.74838000       3.35192000      -1.55267000
Al       5.54062000       1.55729000       3.35192000
Si      -5.53187000      -1.55267000       3.35192000
Si       3.35398000      -1.55267000      -5.53394000
Si       1.55935000       3.35192000       3.75506000
Si      -1.55061000      -3.34731000      -3.75045000
Si       3.75713000      -3.34731000      -1.55267000
Si       3.35398000       1.55729000      -5.53394000
Si      -3.74838000       3.35192000       1.55729000
Si       5.54062000       1.55729000      -3.34731000
Si      -5.53187000       1.55729000      -3.34731000
Si      -3.34524000      -1.55267000       5.53855000
Si       1.55935000       3.35192000      -3.75045000
Si      -3.74838000      -3.34731000       1.55729000
Si      -1.55061000      -3.34731000       3.75506000
Si       5.54062000      -1.55267000       3.35192000
Si       3.35398000       1.55729000       5.53855000
Si      -5.53187000       1.55729000       3.35192000
Si      -3.34524000      -1.55267000      -5.53394000
Si       1.55935000      -3.34731000       3.75506000
Si       3.75713000       3.35192000      -1.55267000
Si      -1.55061000       3.35192000      -3.75045000
Si      -3.34524000       1.55729000      -5.53394000
Si      -3.74838000      -3.34731000      -1.55267000
Si       5.54062000      -1.55267000      -3.34731000
Si      -5.53187000      -1.55267000      -3.34731000
Si       1.55935000      -3.34731000      -3.75045000
Si       3.35398000      -1.55267000       5.53855000
Al       3.75713000       3.35192000       1.55729000
Si      -1.55061000       3.35192000       3.75506000
O       -6.92336000       2.36357000       3.44110000
O        1.70983000       4.74341000      -4.54559000
O        2.36564000       3.44110000      -2.35896000
O       -3.44371000      -3.06678000       0.00231000
O       -4.54352000      -4.73880000       1.70777000
O       -2.35689000      -3.43648000       2.36357000
O        0.00437000      -3.06678000       3.45038000
O       -1.70109000      -4.73880000       4.55020000
O       -2.14696000      -2.14902000      -4.64219000
O       -4.73673000      -1.70315000       4.74341000
O       -4.64013000      -2.14902000       2.15364000
O       -2.35689000      -3.43648000      -2.35896000
O        4.55227000      -4.73880000      -1.70315000
O        4.64887000      -2.14902000      -2.14902000
O        2.36564000      -3.43648000      -2.35896000
O        4.74548000       1.70777000      -4.73880000
O       -5.83655000       0.00231000       3.07139000
O       -3.06471000       0.00231000       5.84323000
O       -4.73673000       1.70777000       4.74341000
O        3.45245000      -3.06678000       0.00231000
O       -2.14696000       2.15364000       4.64681000
O       -3.43442000       2.36357000       6.93004000
O        4.55227000      -4.73880000       1.70777000
O        4.64887000      -2.14902000       2.15364000
O       -6.92336000       2.36357000      -3.43648000
O       -2.14696000      -2.14902000       4.64681000
O        1.70983000      -4.73880000      -4.54559000
O        3.07346000       0.00231000      -5.83862000
O        4.74548000      -1.70315000      -4.73880000
O        2.15570000      -2.14902000      -4.64219000
O        3.44316000      -2.35896000      -6.92543000
O        0.00437000       3.07139000       3.45038000
O        1.70983000       4.74341000       4.55020000
O        2.15570000       2.15364000       4.64681000
O        2.36564000       3.44110000       2.36357000
O        0.00437000      -3.06678000      -3.44577000
O       -1.70109000      -4.73880000      -4.54559000
O        3.44316000      -2.35896000       6.93004000
O        4.55227000       4.74341000       1.70777000
O       -1.70109000       4.74341000       4.55020000
O        2.36564000      -3.43648000       2.36357000
O       -3.44371000       3.07139000       0.00231000
O       -4.54352000       4.74341000      -1.70315000
O       -4.64013000       2.15364000      -2.14902000
O       -2.35689000       3.44110000      -2.35896000
O        5.84529000       0.00231000       3.07139000
O        4.74548000       1.70777000       4.74341000
O        4.64887000       2.15364000       2.15364000
O        6.93211000       2.36357000       3.44110000
O       -6.92336000      -2.35896000       3.44110000
O        1.70983000      -4.73880000       4.55020000
O        2.15570000      -2.14902000       4.64681000
O        3.45245000       3.07139000       0.00231000
O       -3.06471000       0.00231000      -5.83862000
O       -4.73673000      -1.70315000      -4.73880000
O       -3.43442000      -2.35896000      -6.92543000
O        4.74548000      -1.70315000       4.74341000
O        6.93211000      -2.35896000       3.44110000
O        3.07346000       0.00231000       5.84323000
O        3.44316000       2.36357000       6.93004000
O       -3.43442000      -2.35896000       6.93004000
O        0.00437000       3.07139000      -3.44577000
O        2.15570000       2.15364000      -4.64219000
O        3.44316000       2.36357000      -6.92543000
O       -4.54352000       4.74341000       1.70777000
O       -4.64013000       2.15364000       2.15364000
O       -2.35689000       3.44110000       2.36357000
O        5.84529000       0.00231000      -3.06678000
O        4.64887000       2.15364000      -2.14902000
O        6.93211000       2.36357000      -3.43648000
O       -5.83655000       0.00231000      -3.06678000
O       -4.73673000       1.70777000      -4.73880000
O        4.55227000       4.74341000      -1.70315000
O       -1.70109000       4.74341000      -4.54559000
O       -2.14696000       2.15364000      -4.64219000
O       -3.43442000       2.36357000      -6.92543000
O       -4.54352000      -4.73880000      -1.70315000
O       -4.64013000      -2.14902000      -2.14902000
O        6.93211000      -2.35896000      -3.43648000
O       -6.92336000      -2.35896000      -3.43648000
H       -7.77000000       2.85415000       3.49535000
H        1.80145000       5.59057000      -5.02967000
H       -5.02761000      -5.58595000       1.79938000
H       -1.79270000      -5.58595000       5.03429000
H        5.03635000      -5.58595000      -1.79477000
H       -3.48867000       2.85415000       7.77668000
H        5.03635000      -5.58595000       1.79938000
H       -7.77000000       2.85415000      -3.49074000
H        1.80145000      -5.58595000      -5.02967000
H        3.49742000      -2.84953000      -7.77206000
H        1.80145000       5.59057000       5.03429000
H       -1.79270000      -5.58595000      -5.02967000
H        3.49742000      -2.84953000       7.77668000
H        5.03635000       5.59057000       1.79938000
H       -1.79270000       5.59057000       5.03429000
H       -5.02761000       5.59057000      -1.79477000
H        7.77874000       2.85415000       3.49535000
H       -7.77000000      -2.84953000       3.49535000
H        1.80145000      -5.58595000       5.03429000
H       -3.48867000      -2.84953000      -7.77206000
H        7.77874000      -2.84953000       3.49535000
H        3.49742000       2.85415000       7.77668000
H       -3.48867000      -2.84953000       7.77668000
H        3.49742000       2.85415000      -7.77206000
H       -5.02761000       5.59057000       1.79938000
H        7.77874000       2.85415000      -3.49074000
H        5.03635000       5.59057000      -1.79477000
H       -1.79270000       5.59057000      -5.02967000
H       -3.48867000       2.85415000      -7.77206000
H       -5.02761000      -5.58595000      -1.79477000
H        7.77874000      -2.84953000      -3.49074000
H       -7.77000000      -2.84953000      -3.49074000
