55
Properties=species:S:1:pos:R:3 pbc="F F F"
Ba      -0.10170800       0.06082500       0.17490000
Si       0.56834000       0.30815600       3.43723900
Si       0.56834000      -0.30949800      -3.43385000
Al      -2.88288000      -1.53500300       0.24379400
Si      -0.46516500       2.27581800      -2.15127800
Si      -1.19982000      -2.62618200      -2.15126900
Si      -1.19982000       2.62484000       2.15467100
Si      -0.46515100      -2.27715800       2.15466100
Si      -2.88289400       1.53366200      -0.24042000
Si       2.76400200      -0.94969500      -1.23886300
Si       1.21790000      -3.36834000      -0.24041100
Si       1.21789900       3.36700100       0.24381200
Al       2.76400200       0.94836400       1.24225300
O       -1.74770000       3.66406000       3.28317000
O       -2.43047000       2.19247900       1.17823000
O       -0.03973000      -3.35266000      -1.27288000
O       -0.59591000       1.30032000       2.87899000
O        0.85680000       0.63658900       5.00395000
O       -0.59591000      -1.30166000      -2.87560000
O        0.08271800      -1.23793800       3.28317000
O        1.93387800       0.53169700       2.57886200
O        0.85680000      -0.63793000      -5.00055000
O        0.08272100       1.23659000      -3.27977900
O        1.93387900      -0.53303200      -2.57546100
O       -4.11147100      -2.39970600       0.87409400
O       -2.43047000      -2.19382800      -1.17483000
O       -1.62527600      -1.55068900       1.27628500
O       -3.36851100      -0.00066900       0.00170900
O       -1.06907900       3.60034000      -2.87560000
O        0.76549100       2.70816900      -1.17482800
O       -1.62525500       1.54934500      -1.27286900
O       -1.74770000      -3.66541000      -3.27978000
O       -0.03973000       3.35132000       1.27627000
O       -1.06908200      -3.60167700       2.87899300
O        0.76548900      -2.70952000       1.17823000
O       -4.11146900       2.39836900      -0.87069100
O        2.30744600      -0.00068200       0.00171100
O        4.35575900      -0.76342000      -1.51498000
O        2.44647800      -2.50362900      -0.87069100
O        1.70353000      -4.90267000       0.00170000
O        2.44647900       2.50228900       0.87408800
O        1.70353000       4.90133000       0.00170000
O        4.35575900       0.76208100       1.51837900
H       -2.07730000       4.28925000       3.96207000
H        1.03061000       0.83447000       5.94789000
H        1.03061000      -0.83581000      -5.94450000
H       -4.85046900      -2.91984200       1.25320900
H       -1.43307100       4.39866000      -3.31216900
H       -2.07730000      -4.29059000      -3.95868000
H       -1.43306900      -4.40000100       3.31555800
H       -4.85047000       2.91850000      -1.24982000
H        5.31498000      -0.65117000      -1.68138000
H        1.99595000      -5.82659000       0.14749000
H        1.99595000       5.82525000      -0.14409000
H        5.31498000       0.64982900       1.68478100
