55
Properties=species:S:1:pos:R:3 pbc="F F F"
Sr      -0.16525900       0.16992600      -0.23430300
Si       1.53815000       0.46722000      -3.08042000
Al      -3.10246000      -1.20573000      -0.96621000
Al       1.54089000       2.88777000      -1.12343000
Si      -1.54191000      -0.46317000       3.07538000
Si       3.09870000       1.20978000       0.96118000
Si       3.09870000      -1.20573000      -0.96621000
Si      -1.54191000       0.46722000      -3.08042000
Si       1.54089000      -2.88372000       1.11840000
Si      -3.10246000       1.20978000       0.96118000
Si       1.53815000      -0.46317000       3.07538000
Si      -1.54465000       2.88777000      -1.12343000
Si      -1.54465000      -2.88372000       1.11840000
O        3.54867000       0.00203000      -0.00252000
O        2.00180000      -2.11343000      -0.21708000
O        4.38297000       2.10992000       1.32742000
O       -0.00188000       0.00707000      -2.98793000
O        1.97992000       0.55421000      -4.62677000
O       -2.46921000      -0.60689000      -2.32019000
O        1.71048000       1.91199000      -2.39418000
O        2.46545000      -0.60689000      -2.32019000
O       -2.00556000      -2.11343000      -0.21708000
O       -4.38673000      -2.10586000      -1.33245000
O       -3.55243000       0.00203000      -0.00252000
O        2.00180000       2.11748000       0.21205000
O       -0.00188000       3.32523000      -0.98656000
O        2.45177000       4.19764000      -1.33245000
O       -0.00188000      -0.00302000       2.98290000
O       -1.98368000      -0.55016000       4.62173000
O       -1.71424000      -1.90794000       2.38915000
O       -2.46921000       0.61094000       2.31516000
O        2.46545000       0.61094000       2.31516000
O        4.38297000      -2.10586000      -1.33245000
O       -1.98368000       0.55421000      -4.62677000
O       -1.71424000       1.91199000      -2.39418000
O        1.71048000      -1.90794000       2.38915000
O       -0.00188000      -3.32118000       0.98152000
O        2.45177000      -4.19358000       1.32742000
O       -2.00556000       2.11748000       0.21205000
O       -4.38673000       2.10992000       1.32742000
O        1.97992000      -0.55016000       4.62173000
O       -2.45553000       4.19764000      -1.33245000
O       -2.45553000      -4.19358000       1.32742000
H        5.16445000       2.65765000       1.55028000
H        2.24872000       0.60714000      -5.56769000
H       -5.16821000      -2.65360000      -1.55531000
H        3.00654000       4.99540000      -1.45975000
H       -2.25249000      -0.60309000       5.56266000
H        5.16445000      -2.65360000      -1.55531000
H       -2.25249000       0.60714000      -5.56769000
H        3.00654000      -4.99135000       1.45472000
H       -5.16821000       2.65765000       1.55028000
H        2.24872000      -0.60309000       5.56266000
H       -3.01030000       4.99540000      -1.45975000
H       -3.01030000      -4.99135000       1.45472000
