55
Properties=species:S:1:pos:R:3 pbc="F F F"
Ba      -0.06014500      -0.06609500      -0.32223800
Si       0.57052000       0.31233000       3.43189000
Al       0.57052000      -0.30532000      -3.43920000
Si      -2.88071000      -1.53082000       0.23845000
Si      -0.46298000       2.27999000      -2.15662000
Si      -1.19764000      -2.62201000      -2.15662000
Si      -1.19764000       2.62901000       2.14931000
Si      -0.46298000      -2.27299000       2.14931000
Si      -2.88071000       1.53783000      -0.24577000
Si       2.76618000      -0.94552000      -1.24421000
Si       1.22009000      -3.36417000      -0.24577000
Al       1.22009000       3.37118000       0.23845000
Si       2.76618000       0.95253000       1.23690000
O       -1.74552000       3.66824000       3.27782000
O       -2.42829000       2.19666000       1.17287000
O       -0.03755000      -3.34849000      -1.27823000
O       -0.59373000       1.30449000       2.87364000
O        0.85898000       0.64076000       4.99859000
O       -0.59373000      -1.29749000      -2.88095000
O        0.08490000      -1.23376000       3.27782000
O        1.93606000       0.53586000       2.57350000
O        0.85898000      -0.63376000      -5.00591000
O        0.08490000       1.24077000      -3.28513000
O        1.93606000      -0.52885000      -2.58082000
O       -4.10928000      -2.39554000       0.86874000
O       -2.42829000      -2.18965000      -1.18019000
O       -1.62308000      -1.54651000       1.27092000
O       -3.36633000       0.00350000      -0.00366000
O       -1.06689000       3.60451000      -2.88095000
O        0.76767000       2.71235000      -1.18019000
O       -1.62308000       1.55351000      -1.27823000
O       -1.74552000      -3.66123000      -3.28513000
O       -0.03755000       3.35549000       1.27092000
O       -1.06689000      -3.59751000       2.87364000
O        0.76767000      -2.70534000       1.17287000
O       -4.10928000       2.40254000      -0.87605000
O        2.30962000       0.00350000      -0.00366000
O        4.35794000      -0.75925000      -1.52034000
O        2.44866000      -2.49946000      -0.87605000
O        1.70571000      -4.89850000      -0.00366000
O        2.44866000       2.50646000       0.86874000
O        1.70571000       4.90550000      -0.00366000
O        4.35794000       0.76625000       1.51303000
H       -2.07512000       4.29343000       3.95672000
H        1.03279000       0.83865000       5.94254000
H        1.03279000      -0.83164000      -5.94985000
H       -4.84829000      -2.91567000       1.24786000
H       -1.43089000       4.40283000      -3.31752000
H       -2.07512000      -4.28642000      -3.96403000
H       -1.43089000      -4.39583000       3.31021000
H       -4.84829000       2.92268000      -1.25517000
H        5.31716000      -0.64699000      -1.68674000
H        1.99813000      -5.82242000       0.14213000
H        1.99813000       5.82942000      -0.14945000
H        5.31716000       0.65400000       1.67942000
