145
Properties=species:S:1:pos:R:3 pbc="F F F"
Ba      -0.00056900       0.03652100      -0.00019800
Si      -3.34961000       1.55644000       5.53624000
Si       3.75276000      -3.34815000       1.55498000
Si      -3.75276000       3.35108000      -1.55498000
Al       5.53624000       1.55644000       3.34961000
Si      -5.53624000      -1.55352000       3.34961000
Si       3.34961000      -1.55352000      -5.53624000
Si       1.55498000       3.35108000       3.75276000
Si      -1.55498000      -3.34815000      -3.75276000
Si       3.75276000      -3.34815000      -1.55498000
Si       3.34961000       1.55644000      -5.53624000
Si      -3.75276000       3.35108000       1.55498000
Si       5.53624000       1.55644000      -3.34961000
Al      -5.53624000       1.55644000      -3.34961000
Si      -3.34961000      -1.55352000       5.53624000
Si       1.55498000       3.35108000      -3.75276000
Si      -3.75276000      -3.34815000       1.55498000
Si      -1.55498000      -3.34815000       3.75276000
Si       5.53624000      -1.55352000       3.34961000
Si       3.34961000       1.55644000       5.53624000
Si      -5.53624000       1.55644000       3.34961000
Si      -3.34961000      -1.55352000      -5.53624000
Si       1.55498000      -3.34815000       3.75276000
Si       3.75276000       3.35108000      -1.55498000
Si      -1.55498000       3.35108000      -3.75276000
Si      -3.34961000       1.55644000      -5.53624000
Si      -3.75276000      -3.34815000      -1.55498000
Si       5.53624000      -1.55352000      -3.34961000
Si      -5.53624000      -1.55352000      -3.34961000
Si       1.55498000      -3.34815000      -3.75276000
Si       3.34961000      -1.55352000       5.53624000
Si       3.75276000       3.35108000       1.55498000
Si      -1.55498000       3.35108000       3.75276000
O       -6.92774000       2.36273000       3.43879000
O        1.70546000       4.74257000      -4.54789000
O        2.36126000       3.44025000      -2.36126000
O       -3.44808000      -3.06762000       0.00000000
O       -4.54789000      -4.73964000       1.70546000
O       -2.36126000      -3.43732000       2.36126000
O        0.00000000      -3.06762000       3.44808000
O       -1.70546000      -4.73964000       4.54789000
O       -2.15133000      -2.14987000      -4.64450000
O       -4.74111000      -1.70400000       4.74111000
O       -4.64450000      -2.14987000       2.15133000
O       -2.36126000      -3.43732000      -2.36126000
O        4.54789000      -4.73964000      -1.70546000
O        4.64450000      -2.14987000      -2.15133000
O        2.36126000      -3.43732000      -2.36126000
O        4.74111000       1.70692000      -4.74111000
O       -5.84092000       0.00146000       3.06909000
O       -3.06909000       0.00146000       5.84092000
O       -4.74111000       1.70692000       4.74111000
O        3.44808000      -3.06762000       0.00000000
O       -2.15133000       2.15280000       4.64450000
O       -3.43879000       2.36273000       6.92774000
O        4.54789000      -4.73964000       1.70546000
O        4.64450000      -2.14987000       2.15133000
O       -6.92774000       2.36273000      -3.43879000
O       -2.15133000      -2.14987000       4.64450000
O        1.70546000      -4.73964000      -4.54789000
O        3.06909000       0.00146000      -5.84092000
O        4.74111000      -1.70400000      -4.74111000
O        2.15133000      -2.14987000      -4.64450000
O        3.43879000      -2.35980000      -6.92774000
O        0.00000000       3.07055000       3.44808000
O        1.70546000       4.74257000       4.54789000
O        2.15133000       2.15280000       4.64450000
O        2.36126000       3.44025000       2.36126000
O        0.00000000      -3.06762000      -3.44808000
O       -1.70546000      -4.73964000      -4.54789000
O        3.43879000      -2.35980000       6.92774000
O        4.54789000       4.74257000       1.70546000
O       -1.70546000       4.74257000       4.54789000
O        2.36126000      -3.43732000       2.36126000
O       -3.44808000       3.07055000       0.00000000
O       -4.54789000       4.74257000      -1.70546000
O       -4.64450000       2.15280000      -2.15133000
O       -2.36126000       3.44025000      -2.36126000
O        5.84092000       0.00146000       3.06909000
O        4.74111000       1.70692000       4.74111000
O        4.64450000       2.15280000       2.15133000
O        6.92774000       2.36273000       3.43879000
O       -6.92774000      -2.35980000       3.43879000
O        1.70546000      -4.73964000       4.54789000
O        2.15133000      -2.14987000       4.64450000
O        3.44808000       3.07055000       0.00000000
O       -3.06909000       0.00146000      -5.84092000
O       -4.74111000      -1.70400000      -4.74111000
O       -3.43879000      -2.35980000      -6.92774000
O        4.74111000      -1.70400000       4.74111000
O        6.92774000      -2.35980000       3.43879000
O        3.06909000       0.00146000       5.84092000
O        3.43879000       2.36273000       6.92774000
O       -3.43879000      -2.35980000       6.92774000
O        0.00000000       3.07055000      -3.44808000
O        2.15133000       2.15280000      -4.64450000
O        3.43879000       2.36273000      -6.92774000
O       -4.54789000       4.74257000       1.70546000
O       -4.64450000       2.15280000       2.15133000
O       -2.36126000       3.44025000       2.36126000
O        5.84092000       0.00146000      -3.06909000
O        4.64450000       2.15280000      -2.15133000
O        6.92774000       2.36273000      -3.43879000
O       -5.84092000       0.00146000      -3.06909000
O       -4.74111000       1.70692000      -4.74111000
O        4.54789000       4.74257000      -1.70546000
O       -1.70546000       4.74257000      -4.54789000
O       -2.15133000       2.15280000      -4.64450000
O       -3.43879000       2.36273000      -6.92774000
O       -4.54789000      -4.73964000      -1.70546000
O       -4.64450000      -2.14987000      -2.15133000
O        6.92774000      -2.35980000      -3.43879000
O       -6.92774000      -2.35980000      -3.43879000
H       -7.77437000       2.85330000       3.49304000
H        1.79707000       5.58972000      -5.03198000
H       -5.03198000      -5.58679000       1.79707000
H       -1.79708000      -5.58679000       5.03198000
H        5.03198000      -5.58679000      -1.79708000
H       -3.49305000       2.85330000       7.77437000
H        5.03198000      -5.58679000       1.79707000
H       -7.77437000       2.85330000      -3.49305000
H        1.79707000      -5.58679000      -5.03198000
H        3.49304000      -2.85037000      -7.77437000
H        1.79707000       5.58972000       5.03198000
H       -1.79708000      -5.58679000      -5.03198000
H        3.49304000      -2.85037000       7.77437000
H        5.03198000       5.58972000       1.79707000
H       -1.79708000       5.58972000       5.03198000
H       -5.03198000       5.58972000      -1.79708000
H        7.77437000       2.85330000       3.49304000
H       -7.77437000      -2.85037000       3.49304000
H        1.79707000      -5.58679000       5.03198000
H       -3.49305000      -2.85037000      -7.77437000
H        7.77437000      -2.85037000       3.49304000
H        3.49304000       2.85330000       7.77437000
H       -3.49305000      -2.85037000       7.77437000
H        3.49304000       2.85330000      -7.77437000
H       -5.03198000       5.58972000       1.79707000
H        7.77437000       2.85330000      -3.49305000
H        5.03198000       5.58972000      -1.79708000
H       -1.79708000       5.58972000      -5.03198000
H       -3.49305000       2.85330000      -7.77437000
H       -5.03198000      -5.58679000      -1.79708000
H        7.77437000      -2.85037000      -3.49305000
H       -7.77437000      -2.85037000      -3.49305000
