55
Properties=species:S:1:pos:R:3 pbc="F F F"
Sr      -0.19148200       0.22037700       0.23159900
Si       0.56644700       0.31104300       3.43613000
Si       0.56649800      -0.30662500      -3.43494700
Al      -2.88477100      -1.53211100       0.24269000
Si      -0.46704900       2.27870100      -2.15238000
Si      -1.20171000      -2.62329900      -2.15237800
Si      -1.20171000       2.62772000       2.15355000
Si      -0.46705100      -2.27428000       2.15355000
Si      -2.88477100       1.53654100      -0.24152000
Si       2.76211900      -0.94681100      -1.23997000
Si       1.21601900      -3.36546000      -0.24152000
Al       1.21601900       3.36988900       0.24269000
Si       2.76211800       0.95124000       1.24114000
O       -1.74958000       3.66695000       3.28206000
O       -2.43236000       2.19537000       1.17711000
O       -0.04161000      -3.34977000      -1.27399000
O       -0.59779000       1.30320000       2.87788000
O        0.85492100       0.63947000       5.00283000
O       -0.59779100      -1.29878100      -2.87671300
O        0.08083100      -1.23505000       3.28206000
O        1.93200000       0.53457000       2.57774000
O        0.85488800      -0.63503800      -5.00167800
O        0.08082800       1.23948000      -3.28089000
O        1.93199900      -0.53013800      -2.57657000
O       -4.11335000      -2.39683000       0.87298000
O       -2.43236000      -2.19094000      -1.17594000
O       -1.62714100      -1.54780000       1.27516000
O       -3.37039000       0.00221000       0.00058000
O       -1.07096000       3.60322000      -2.87671000
O        0.76360000       2.71106000      -1.17594000
O       -1.62714200       1.55223000      -1.27399100
O       -1.74958000      -3.66252000      -3.28089000
O       -0.04161000       3.35420000       1.27516000
O       -1.07096000      -3.59880000       2.87788000
O        0.76360000      -2.70662900       1.17711000
O       -4.11335000       2.40125000      -0.87181000
O        2.30554800       0.00221000       0.00058000
O        4.35387000      -0.76054000      -1.51610000
O        2.44460000      -2.50075000      -0.87181000
O        1.70164000      -4.89979000       0.00058000
O        2.44460000       2.50517000       0.87298000
O        1.70164000       4.90421000       0.00058000
O        4.35387000       0.76496000       1.51727000
H       -2.07918000       4.29214000       3.96096000
H        1.02872000       0.83736000       5.94678000
H        1.02872000      -0.83293100      -5.94561000
H       -4.85235000      -2.91696000       1.25210000
H       -1.43495000       4.40154000      -3.31328000
H       -2.07918000      -4.28771000      -3.95979000
H       -1.43495000      -4.39712000       3.31445000
H       -4.85235000       2.92139000      -1.25093000
H        5.31310000      -0.64828000      -1.68250000
H        1.99406000      -5.82371000       0.14637000
H        1.99406000       5.82814000      -0.14521000
H        5.31310000       0.65271000       1.68366000
