109
Properties=species:S:1:pos:R:3 pbc="F F F"
Ba      -0.00262900      -0.03691700      -0.01268100
Si      -2.16845000      -0.00512000       4.06268000
Si      -1.50157000       3.74999000      -2.93310000
Si       2.30689000       4.55631000      -0.09813000
Si      -4.56192000      -2.31251000      -0.09813000
Si      -4.50857000      -0.00511300       1.96652000
Al       1.50058000      -3.76023000      -2.93310000
Al      -2.30788000      -4.56654000      -0.09813000
Si      -0.00050000       2.16283000       4.06268000
Si       1.50058000       3.74999000      -2.93310000
Si      -2.30788000       4.55631000      -0.09813000
Si      -0.00050000       4.50296000       1.96652000
Si      -0.00050000      -2.17307000       4.06268000
Si       3.75462000       1.49596000      -2.93310000
Si      -1.50157000      -3.76023000      -2.93310000
Si       2.30689000      -4.56654000      -0.09813000
Si      -0.00050000      -4.51319000       1.96652000
Si      -3.75561000      -1.50619000      -2.93310000
Si      -4.56192000       2.30227000      -0.09813000
Si      -3.75561000       1.49596000      -2.93310000
Si       4.56093000      -2.31251000      -0.09813000
Si       2.16745000      -0.00512000       4.06268000
Si       3.75462000      -1.50619000      -2.93310000
Si       4.56093000       2.30227000      -0.09813000
Si       4.50758000      -0.00512000       1.96652000
O       -4.75350000       1.89972000      -4.13008000
O        4.51243000      -1.55469000      -1.51562000
O        4.15717000      -1.31462000       1.09885000
O        6.06200000      -2.84116000       0.15673000
O        3.57274000      -0.00512000       3.27805000
O        2.47179000      -0.00512000       5.64338000
O        4.75250000      -1.90996000      -4.13008000
O       -1.31000000       4.15254000       1.09885000
O       -6.06300000      -0.00512600       2.38461000
O        1.54908000      -4.51804000      -1.51562000
O       -4.15816000       1.30438000       1.09885000
O       -3.57373000      -0.00512100       3.27805000
O       -2.47278000      -0.00512000       5.64338000
O       -1.55007000       4.50781000      -1.51562000
O       -1.31485000      -1.31947000       3.69041000
O       -1.31485000       1.30923000       3.69041000
O       -1.90533000       4.74788000      -4.13008000
O       -0.00050000       3.22134000      -3.18796000
O       -4.75350000      -1.90996000      -4.13008000
O       -3.22696000      -0.00512000      -3.18796000
O        4.15717000       1.30438000       1.09885000
O        6.06200000       2.83092000       0.15673000
O        6.06200000      -0.00512000       2.38461000
O       -2.83653000       6.05738000       0.15673000
O       -3.57252000       3.56691000      -0.12391000
O       -0.00050000       6.05738000       2.38461000
O       -0.00050000      -3.57836000       3.27805000
O       -0.00050000      -2.47741000       5.64338000
O       -2.49097000       2.48536000      -2.90733000
O        1.54908000       4.50781000      -1.51562000
O        1.30900000       4.15254000       1.09885000
O        2.83554000       6.05738000       0.15673000
O        3.57153000       3.56691000      -0.12391000
O       -4.51342000      -1.55469000      -1.51562000
O       -4.15816000      -1.31462000       1.09885000
O       -6.06300000      -2.84116000       0.15673000
O       -3.57252000      -3.57714000      -0.12391000
O        1.90434000      -4.75812000      -4.13008000
O       -4.51342000       1.54446000      -1.51562000
O       -6.06300000       2.83092000       0.15673000
O        1.31385000      -1.31947000       3.69041000
O        4.51243000       1.54446000      -1.51562000
O        4.75250000       1.89972000      -4.13008000
O        3.22597000      -0.00512000      -3.18796000
O       -1.90533000      -4.75812000      -4.13008000
O       -2.49097000      -2.49559000      -2.90733000
O        1.30900000      -4.16278000       1.09885000
O        2.83554000      -6.06762000       0.15673000
O        3.57153000      -3.57714000      -0.12391000
O       -0.00050000      -6.06762000       2.38461000
O       -0.00050000      -3.23158000      -3.18796000
O        2.48998000      -2.49559000      -2.90733000
O       -1.55007000      -4.51804000      -1.51562000
O       -1.31000000      -4.16278000       1.09885000
O       -2.83653000      -6.06762000       0.15673000
O       -0.00050000       3.56812000       3.27805000
O       -0.00050000       2.46717000       5.64338000
O        1.31385000       1.30923000       3.69041000
O        1.90434000       4.74788000      -4.13008000
O        2.48998000       2.48536000      -2.90733000
H       -5.36097000       2.14551000      -4.85876000
H        6.97472000      -3.16260000       0.31169000
H        2.65707000      -0.00512000       6.60571000
H        5.35997000      -2.15575000      -4.85876000
H       -7.00936000      -0.00511900       2.63915000
H       -2.65806000      -0.00512000       6.60571000
H       -2.15113000       5.35535000      -4.85876000
H       -5.36097000      -2.15575000      -4.85876000
H        6.97472000       3.15236000       0.31169000
H        7.00837000      -0.00512000       2.63915000
H       -3.15798000       6.97010000       0.31169000
H       -0.00050000       7.00375000       2.63915000
H       -0.00050000      -2.66269000       6.60571000
H        3.15698000       6.97010000       0.31169000
H       -6.97572000      -3.16260000       0.31169000
H        2.15013000      -5.36559000      -4.85876000
H       -6.97572000       3.15236000       0.31169000
H        5.35997000       2.14551000      -4.85876000
H       -2.15113000      -5.36559000      -4.85876000
H        3.15698000      -6.98034000       0.31169000
H       -0.00050000      -7.01399000       2.63915000
H       -3.15798000      -6.98034000       0.31169000
H       -0.00050000       2.65245000       6.60571000
H        2.15013000       5.35535000      -4.85876000
