55
Properties=species:S:1:pos:R:3 pbc="F F F"
Ba      -0.08198900       0.43290600       0.13045300
Si       1.53825000       0.46988000      -3.07808000
Si      -3.10236000      -1.20306000      -0.96387000
Al       1.54098000       2.89043000      -1.12110000
Si      -1.54181000      -0.46051000       3.07772000
Si       3.09879000       1.21244000       0.96351000
Si       3.09879000      -1.20306000      -0.96387000
Si      -1.54181000       0.46988000      -3.07808000
Si       1.54098000      -2.88106000       1.12074000
Al      -3.10236000       1.21244000       0.96351000
Si       1.53825000      -0.46051000       3.07772000
Si      -1.54455000       2.89043000      -1.12110000
Si      -1.54455000      -2.88106000       1.12074000
O        3.54877000       0.00469000      -0.00018000
O        2.00190000      -2.11077000      -0.21475000
O        4.38306000       2.11258000       1.32975000
O       -0.00178000       0.00973000      -2.98560000
O        1.98001000       0.55687000      -4.62443000
O       -2.46911000      -0.60423000      -2.31785000
O        1.71058000       1.91465000      -2.39184000
O        2.46555000      -0.60423000      -2.31785000
O       -2.00546000      -2.11077000      -0.21475000
O       -4.38663000      -2.10320000      -1.33011000
O       -3.55233000       0.00469000      -0.00018000
O        2.00190000       2.12014000       0.21438000
O       -0.00178000       3.32789000      -0.98422000
O        2.45187000       4.20030000      -1.33011000
O       -0.00178000      -0.00036000       2.98524000
O       -1.98358000      -0.54750000       4.62407000
O       -1.71414000      -1.90527000       2.39148000
O       -2.46911000       0.61360000       2.31749000
O        2.46555000       0.61360000       2.31749000
O        4.38306000      -2.10320000      -1.33011000
O       -1.98358000       0.55687000      -4.62443000
O       -1.71414000       1.91465000      -2.39184000
O        1.71058000      -1.90527000       2.39148000
O       -0.00178000      -3.31852000       0.98386000
O        2.45187000      -4.19092000       1.32975000
O       -2.00546000       2.12014000       0.21438000
O       -4.38663000       2.11258000       1.32975000
O        1.98001000      -0.54750000       4.62407000
O       -2.45544000       4.20030000      -1.33011000
O       -2.45544000      -4.19092000       1.32975000
H        5.16455000       2.66032000       1.55261000
H        2.24882000       0.60980000      -5.56536000
H       -5.16811000      -2.65094000      -1.55297000
H        3.00664000       4.99806000      -1.45741000
H       -2.25239000      -0.60043000       5.56500000
H        5.16455000      -2.65094000      -1.55297000
H       -2.25239000       0.60980000      -5.56536000
H        3.00664000      -4.98869000       1.45705000
H       -5.16811000       2.66032000       1.55261000
H        2.24882000      -0.60043000       5.56500000
H       -3.01021000       4.99806000      -1.45741000
H       -3.01021000      -4.98869000       1.45705000
