109
Properties=species:S:1:pos:R:3 pbc="F F F"
Ba      -0.04190400       0.00006600      -0.00066400
Si      -1.53263000      -4.42389000       1.26215000
Al      -4.59776000      -0.88905000      -1.25400000
Si      -3.07165000      -3.53235000      -1.25400000
Si      -3.06993000      -0.00795000      -3.74487000
Si      -1.54468000      -2.64976000      -3.74487000
Si      -3.07423000       0.00249000       3.73898000
Si       1.52132000      -4.42389000       1.26215000
Si      -1.53779000      -2.65870000       3.73898000
Si      -3.07337000       3.53434000       1.26215000
Si       3.06034000      -3.53235000      -1.25400000
Si      -1.53177000       4.42140000      -1.25400000
Si       1.53337000      -2.64976000      -3.74487000
Si      -1.53090000       2.65771000      -3.74487000
Si       1.52648000      -2.65870000       3.73898000
Si      -1.54209000       2.65622000       3.73898000
Si       4.58903000       0.88955000       1.26215000
Si       4.58645000      -0.88905000      -1.25400000
Si       3.05861000      -0.00795000      -3.74487000
Si       3.06292000       0.00249000       3.73898000
Si       3.06206000       3.53434000       1.26215000
Si       1.52045000       4.42140000      -1.25400000
Si       1.51959000       2.65771000      -3.74487000
Si       1.53078000       2.65622000       3.73898000
Al      -4.60034000       0.88955000       1.26215000
O        1.88627000       1.09231000       3.59295000
O        3.57506000      -0.03180000       5.26383000
O        2.48880000       3.51347000       2.76734000
O        4.30154000       4.55707000       1.17509000
O        1.90005000       4.00843000       0.25400000
O        2.50257000       5.59471000      -1.75667000
O        1.68141000       3.14075000      -2.21721000
O        4.26883000      -2.46787000      -1.30174000
O       -2.51560000      -1.44812000       3.32617000
O       -3.58638000      -0.03180000       5.26383000
O       -1.89758000       1.09231000       3.59295000
O       -0.00566000      -4.11379000       0.85777000
O       -1.80118000      -3.91699000       2.76734000
O       -4.42991000      -0.35383000       0.25400000
O       -1.79860000      -6.00867000       1.17509000
O       -2.52421000      -3.65460000       0.25400000
O       -6.10493000      -0.62517000      -1.75667000
O       -3.56916000      -0.10933000      -2.21721000
O        6.09362000      -0.62517000      -1.75667000
O        3.55785000      -0.10933000      -2.21721000
O        2.50171000       3.51794000      -4.68843000
O        1.75716000       3.11690000       5.26383000
O       -6.10579000       1.45160000       1.17509000
O       -2.51388000       5.59471000      -1.75667000
O       -1.69273000       3.14075000      -2.21721000
O       -0.00566000       4.93575000      -1.30174000
O        1.78729000      -3.93041000      -4.68843000
O        2.48708000      -1.43918000      -4.21665000
O       -4.28014000      -2.46787000      -1.30174000
O       -3.59670000      -4.96954000      -1.75667000
O       -1.88209000      -3.03142000      -2.21721000
O       -4.30596000       0.41247000      -4.68843000
O       -2.49839000      -1.43918000      -4.21665000
O       -1.90619000       1.09827000      -3.86001000
O       -1.79860000      -3.93041000      -4.68843000
O       -0.00652000      -2.19505000      -3.86001000
O       -4.29563000       0.40353000       2.76734000
O        1.78987000      -3.91699000       2.76734000
O        4.29465000       0.41247000      -4.68843000
O        1.89574000       1.09678000      -3.86001000
O       -2.51302000       3.51794000      -4.68843000
O       -0.00566000       2.87836000      -4.21665000
O        2.50343000      -1.44962000       3.32617000
O        1.81225000      -3.08509000       5.26383000
O       -0.00479000       2.89774000       3.32617000
O       -1.76847000       3.11690000       5.26383000
O        3.55699000       2.05689000       0.85777000
O        4.28432000       0.40353000       2.76734000
O        6.09448000       1.45160000       1.17509000
O        4.41860000      -0.35383000       0.25400000
O        1.78729000      -6.00867000       1.17509000
O        2.51290000      -3.65460000       0.25400000
O       -0.00566000      -2.18461000       3.59295000
O       -1.82356000      -3.08509000       5.26383000
O       -3.56830000       2.05689000       0.85777000
O       -2.50011000       3.51347000       2.76734000
O       -4.31285000       4.55707000       1.17509000
O       -1.91136000       4.00843000       0.25400000
O        3.58539000      -4.96954000      -1.75667000
O        1.87078000      -3.03142000      -2.21721000
H        3.88701000      -0.05269000       6.19262000
H        5.05633000       5.17987000       1.12208000
H        3.10017000       6.30865000      -2.06254000
H       -3.89832000      -0.05269000       6.19262000
H       -1.96056000      -6.97374000       1.12208000
H       -7.02202000      -0.46460000      -2.06254000
H        7.01071000      -0.46460000      -2.06254000
H        3.09920000       4.04128000      -5.26246000
H        1.89505000       3.39750000       6.19262000
H       -7.02255000       1.79387000       1.12208000
H       -3.11149000       6.30865000      -2.06254000
H        1.94177000      -4.70953000      -5.26246000
H       -3.91620000      -5.84405000      -2.06254000
H       -5.05794000       0.66825000      -5.26246000
H       -1.95308000      -4.70953000      -5.26246000
H        5.04662000       0.66825000      -5.26246000
H       -3.11051000       4.04128000      -5.26246000
H        1.98631000      -3.34480000       6.19262000
H       -1.90636000       3.39750000       6.19262000
H        7.01124000       1.79387000       1.12208000
H        1.94925000      -6.97374000       1.12208000
H       -1.99762000      -3.34480000       6.19262000
H       -5.06764000       5.17987000       1.12208000
H        3.90488000      -5.84405000      -2.06254000
