109
Properties=species:S:1:pos:R:3 pbc="F F F"
Ba      -0.02266800       0.00131000       0.03260500
Si      -2.17076000      -0.00009000       4.06698000
Si      -1.50388000       3.75503000      -2.92879000
Si       2.30458000       4.56134000      -0.09383000
Al      -4.56423000      -2.30747000      -0.09383000
Si      -4.51088000      -0.00009000       1.97083000
Si       1.49827000      -3.75520000      -2.92879000
Si      -2.31020000      -4.56151000      -0.09383000
Al      -0.00281000       2.16786000       4.06698000
Si       1.49827000       3.75503000      -2.92879000
Si      -2.31020000       4.56134000      -0.09383000
Si      -0.00281000       4.50799000       1.97083000
Si      -0.00281000      -2.16804000       4.06698000
Si       3.75230000       1.50099000      -2.92879000
Si      -1.50388000      -3.75520000      -2.92879000
Si       2.30458000      -4.56151000      -0.09383000
Si      -0.00281000      -4.50816000       1.97083000
Si      -3.75792000      -1.50116000      -2.92879000
Si      -4.56423000       2.30730000      -0.09383000
Si      -3.75792000       1.50099000      -2.92879000
Si       4.55862000      -2.30747000      -0.09383000
Si       2.16514000      -0.00009000       4.06698000
Si       3.75230000      -1.50116000      -2.92879000
Si       4.55862000       2.30730000      -0.09383000
Si       4.50527000      -0.00009000       1.97083000
O       -4.75581000       1.90475000      -4.12578000
O        4.51012000      -1.54966000      -1.51131000
O        4.15485000      -1.30959000       1.10316000
O        6.05969000      -2.83612000       0.16103000
O        3.57043000      -0.00009000       3.28236000
O        2.46948000      -0.00009000       5.64769000
O        4.75019000      -1.90492000      -4.12578000
O       -1.31231000       4.15758000       1.10316000
O       -6.06531000      -0.00009000       2.38891000
O        1.54677000      -4.51301000      -1.51131000
O       -4.16047000       1.30941000       1.10316000
O       -3.57605000      -0.00009000       3.28236000
O       -2.47510000      -0.00009000       5.64769000
O       -1.55238000       4.51284000      -1.51131000
O       -1.31716000      -1.31444000       3.69472000
O       -1.31716000       1.31426000       3.69472000
O       -1.90765000       4.75291000      -4.12578000
O       -0.00281000       3.22638000      -3.18365000
O       -4.75581000      -1.90492000      -4.12578000
O       -3.22927000      -0.00009000      -3.18365000
O        4.15485000       1.30941000       1.10316000
O        6.05969000       2.83595000       0.16103000
O        6.05969000      -0.00009000       2.38891000
O       -2.83885000       6.06241000       0.16103000
O       -3.57483000       3.57194000      -0.11960000
O       -0.00281000       6.06241000       2.38891000
O       -0.00281000      -3.57332000       3.28236000
O       -0.00281000      -2.47237000       5.64769000
O       -2.49328000       2.49039000      -2.90302000
O        1.54677000       4.51284000      -1.51131000
O        1.30669000       4.15758000       1.10316000
O        2.83323000       6.06241000       0.16103000
O        3.56922000       3.57194000      -0.11960000
O       -4.51573000      -1.54966000      -1.51131000
O       -4.16047000      -1.30959000       1.10316000
O       -6.06531000      -2.83612000       0.16103000
O       -3.57483000      -3.57211000      -0.11960000
O        1.90203000      -4.75309000      -4.12578000
O       -4.51573000       1.54949000      -1.51131000
O       -6.06531000       2.83595000       0.16103000
O        1.31154000      -1.31444000       3.69472000
O        4.51012000       1.54949000      -1.51131000
O        4.75019000       1.90475000      -4.12578000
O        3.22365000      -0.00009000      -3.18365000
O       -1.90765000      -4.75309000      -4.12578000
O       -2.49328000      -2.49056000      -2.90302000
O        1.30669000      -4.15775000       1.10316000
O        2.83323000      -6.06259000       0.16103000
O        3.56922000      -3.57211000      -0.11960000
O       -0.00281000      -6.06259000       2.38891000
O       -0.00281000      -3.22655000      -3.18365000
O        2.48767000      -2.49056000      -2.90302000
O       -1.55238000      -4.51301000      -1.51131000
O       -1.31231000      -4.15775000       1.10316000
O       -2.83885000      -6.06259000       0.16103000
O       -0.00281000       3.57315000       3.28236000
O       -0.00281000       2.47220000       5.64769000
O        1.31154000       1.31426000       3.69472000
O        1.90203000       4.75291000      -4.12578000
O        2.48767000       2.49039000      -2.90302000
H       -5.36328000       2.15055000      -4.85445000
H        6.97241000      -3.15757000       0.31600000
H        2.65476000      -0.00009000       6.61002000
H        5.35766000      -2.15072000      -4.85445000
H       -7.01168000      -0.00009000       2.64345000
H       -2.66038000      -0.00009000       6.61002000
H       -2.15344000       5.36039000      -4.85445000
H       -5.36328000      -2.15072000      -4.85445000
H        6.97241000       3.15739000       0.31600000
H        7.00606000      -0.00009000       2.64345000
H       -3.16029000       6.97514000       0.31600000
H       -0.00281000       7.00878000       2.64345000
H       -0.00281000      -2.65765000       6.61002000
H        3.15467000       6.97514000       0.31600000
H       -6.97803000      -3.15757000       0.31600000
H        2.14782000      -5.36056000      -4.85445000
H       -6.97803000       3.15739000       0.31600000
H        5.35766000       2.15055000      -4.85445000
H       -2.15344000      -5.36056000      -4.85445000
H        3.15467000      -6.97531000       0.31600000
H       -0.00281000      -7.00895000       2.64345000
H       -3.16029000      -6.97531000       0.31600000
H       -0.00281000       2.65748000       6.61002000
H        2.14782000       5.36039000      -4.85445000
