109
Properties=species:S:1:pos:R:3 pbc="F F F"
Ba      -0.03577500      -0.01577400      -0.01192300
Si      -2.17307000      -0.00234000       4.06268000
Si      -1.50619000       3.75277000      -2.93310000
Si       2.30227000       4.55908000      -0.09813000
Al      -4.56654000      -2.30973000      -0.09813000
Si      -4.51319000      -0.00234000       1.96652000
Si       1.49596000      -3.75746000      -2.93310000
Si      -2.31251000      -4.56377000      -0.09813000
Si      -0.00512000       2.16561000       4.06268000
Si       1.49596000       3.75277000      -2.93310000
Si      -2.31251000       4.55908000      -0.09813000
Si      -0.00511900       4.50573000       1.96652000
Si      -0.00512000      -2.17029000       4.06268000
Si       3.74999000       1.49873000      -2.93310000
Si      -1.50619000      -3.75746000      -2.93310000
Si       2.30227000      -4.56377000      -0.09813000
Si      -0.00512000      -4.51042000       1.96652000
Al      -3.76023000      -1.50342000      -2.93310000
Si      -4.56654000       2.30504000      -0.09813000
Si      -3.76023000       1.49873000      -2.93310000
Si       4.55631000      -2.30973000      -0.09813000
Si       2.16283000      -0.00234000       4.06268000
Si       3.74999000      -1.50342000      -2.93310000
Si       4.55631000       2.30504000      -0.09813000
Si       4.50296000      -0.00234000       1.96652000
O       -4.75812000       1.90249000      -4.13008000
O        4.50781000      -1.55192000      -1.51562000
O        4.15254000      -1.31184000       1.09885000
O        6.05738000      -2.83838000       0.15673000
O        3.56812000      -0.00234000       3.27805000
O        2.46717000      -0.00234000       5.64338000
O        4.74788000      -1.90718000      -4.13008000
O       -1.31462000       4.15532000       1.09885000
O       -6.06762000      -0.00234000       2.38461000
O        1.54446000      -4.51527000      -1.51562000
O       -4.16278000       1.30716000       1.09885000
O       -3.57836000      -0.00234000       3.27805000
O       -2.47741000      -0.00234000       5.64338000
O       -1.55469000       4.51058000      -1.51562000
O       -1.31947000      -1.31669000       3.69041000
O       -1.31947000       1.31201000       3.69041000
O       -1.90996000       4.75066000      -4.13008000
O       -0.00512000       3.22412000      -3.18796000
O       -4.75812000      -1.90718000      -4.13008000
O       -3.23158000      -0.00234000      -3.18796000
O        4.15254000       1.30716000       1.09885000
O        6.05738000       2.83369000       0.15673000
O        6.05738000      -0.00234000       2.38461000
O       -2.84116000       6.06016000       0.15673000
O       -3.57714000       3.56968000      -0.12391000
O       -0.00512100       6.06016000       2.38461000
O       -0.00512000      -3.57558000       3.27805000
O       -0.00512000      -2.47463000       5.64338000
O       -2.49559000       2.48813000      -2.90733000
O        1.54446000       4.51058000      -1.51562000
O        1.30438000       4.15532000       1.09885000
O        2.83092000       6.06016000       0.15673000
O        3.56691000       3.56968000      -0.12391000
O       -4.51804000      -1.55192000      -1.51562000
O       -4.16278000      -1.31184000       1.09885000
O       -6.06762000      -2.83838000       0.15673000
O       -3.57714000      -3.57437000      -0.12391000
O        1.89972000      -4.75534000      -4.13008000
O       -4.51804000       1.54723000      -1.51562000
O       -6.06762000       2.83369000       0.15673000
O        1.30923000      -1.31669000       3.69041000
O        4.50781000       1.54723000      -1.51562000
O        4.74788000       1.90249000      -4.13008000
O        3.22134000      -0.00234000      -3.18796000
O       -1.90996000      -4.75534000      -4.13008000
O       -2.49559000      -2.49282000      -2.90733000
O        1.30438000      -4.16001000       1.09885000
O        2.83092000      -6.06484000       0.15673000
O        3.56691000      -3.57437000      -0.12391000
O       -0.00512000      -6.06484000       2.38461000
O       -0.00512000      -3.22881000      -3.18796000
O        2.48536000      -2.49282000      -2.90733000
O       -1.55469000      -4.51527000      -1.51562000
O       -1.31462000      -4.16001000       1.09885000
O       -2.84116000      -6.06484000       0.15673000
O       -0.00512000       3.57089000       3.27805000
O       -0.00512000       2.46994000       5.64338000
O        1.30923000       1.31201000       3.69041000
O        1.89972000       4.75066000      -4.13008000
O        2.48536000       2.48813000      -2.90733000
H       -5.36559000       2.14829000      -4.85876000
H        6.97010000      -3.15982000       0.31169000
H        2.65245000      -0.00234000       6.60571000
H        5.35535000      -2.15298000      -4.85876000
H       -7.01399000      -0.00234000       2.63915000
H       -2.66269000      -0.00234000       6.60571000
H       -2.15575000       5.35813000      -4.85876000
H       -5.36559000      -2.15298000      -4.85876000
H        6.97010000       3.15514000       0.31169000
H        7.00375000      -0.00234000       2.63915000
H       -3.16260000       6.97288000       0.31169000
H       -0.00512000       7.00652000       2.63915000
H       -0.00512000      -2.65991000       6.60571000
H        3.15236000       6.97288000       0.31169000
H       -6.98034000      -3.15982000       0.31169000
H        2.14551000      -5.36282000      -4.85876000
H       -6.98034000       3.15514000       0.31169000
H        5.35535000       2.14829000      -4.85876000
H       -2.15575000      -5.36282000      -4.85876000
H        3.15236000      -6.97757000       0.31169000
H       -0.00512000      -7.01121000       2.63915000
H       -3.16260000      -6.97757000       0.31169000
H       -0.00512000       2.65522000       6.60571000
H        2.14551000       5.35813000      -4.85876000
