109
Properties=species:S:1:pos:R:3 pbc="F F F"
Ba       0.17256100      -0.14685200       0.33880500
Si      -2.16699400      -0.00102400       4.06527100
Si      -1.50015500       3.75413600      -2.93054200
Si       2.30830800       4.56044300      -0.09556800
Si      -4.56049300      -2.30835400      -0.09557000
Si      -4.50720000      -0.00049700       1.96887100
Al       1.50200500      -3.75608100      -2.93054400
Si      -2.30646000      -4.56239300      -0.09556800
Al       0.00091900       2.16697000       4.06524200
Si       1.50199900       3.75413600      -2.93053500
Si      -2.30645800       4.56044700      -0.09557300
Si       0.00092000       4.50709200       1.96907600
Si       0.00092400      -2.16892500       4.06523500
Si       3.75603000       1.50009600      -2.93054100
Si      -1.50019700      -3.75604400      -2.93056300
Si       2.30830900      -4.56239400      -0.09556500
Si       0.00092000      -4.50904200       1.96907700
Si      -3.75419600      -1.50202800      -2.93054700
Si      -4.56049700       2.30640600      -0.09557400
Si      -3.75419000       1.50009800      -2.93054300
Si       4.56234500      -2.30835900      -0.09557100
Si       2.16886700      -0.00098200       4.06523800
Si       3.75605200      -1.50203100      -2.93051900
Si       4.56234100       2.30641400      -0.09556500
Si       4.50899600      -0.00098000       1.96908000
O       -4.75208100       1.90385800      -4.12751800
O        4.51383700      -1.55054200      -1.51304700
O        4.15858300      -1.31048100       1.10141300
O        6.06342200      -2.83701400       0.15928800
O        3.57415700      -0.00098000       3.28060800
O        2.47320900      -0.00097900       5.64595100
O        4.75392000      -1.90581100      -4.12752500
O       -1.30858000       4.15668400       1.10140800
O       -6.06154400      -0.00135300       2.38731400
O        1.55049500      -4.51389300      -1.51304700
O       -4.15673400       1.30851900       1.10141500
O       -3.57230200      -0.00102100       3.28061000
O       -2.47135500      -0.00098400       5.64595300
O       -1.54864900       4.51194900      -1.51304900
O       -1.31342600      -1.31532900       3.69296800
O       -1.31341700       1.31335900       3.69295300
O       -1.90390800       4.75202000      -4.12752000
O        0.00091800       3.22549000      -3.18539800
O       -4.75207700      -1.90582500      -4.12751800
O       -3.22553900      -0.00097900      -3.18539800
O        4.15858200       1.30851300       1.10140800
O        6.06342900       2.83504900       0.15928000
O        6.06342300      -0.00098000       2.38717000
O       -2.83510900       6.06152200       0.15929000
O       -3.57110000       3.57104800      -0.12133600
O        0.00091900       6.06152300       2.38717200
O        0.00091700      -3.57421000       3.28060600
O        0.00092100      -2.47326100       5.64595200
O       -2.48955000       2.48950100      -2.90476400
O        1.55049700       4.51194600      -1.51304800
O        1.31041900       4.15668300       1.10141000
O        2.83696300       6.06152300       0.15928900
O        3.57294700       3.57104500      -0.12133800
O       -4.51199700      -1.55054900      -1.51305000
O       -4.15673900      -1.31048700       1.10142200
O       -6.06158400      -2.83700900       0.15928700
O       -3.57109600      -3.57299600      -0.12134600
O        1.90575800      -4.75398300      -4.12752400
O       -4.51200100       1.54860200      -1.51305100
O       -6.06158100       2.83506100       0.15929200
O        1.31527000      -1.31532800       3.69296900
O        4.51384400       1.54860100      -1.51304400
O        4.75392100       1.90386400      -4.12752300
O        3.22739900      -0.00105400      -3.18538500
O       -1.90388100      -4.75402300      -4.12749800
O       -2.48954500      -2.49145300      -2.90475100
O        1.31041600      -4.15863500       1.10141100
O        2.83696000      -6.06348500       0.15928800
O        3.57294600      -3.57299600      -0.12133900
O        0.00091900      -6.06348400       2.38717200
O        0.00092200      -3.22743900      -3.18539500
O        2.49139600      -2.49144500      -2.90474400
O       -1.54864300      -4.51389800      -1.51304200
O       -1.30857400      -4.15863500       1.10140900
O       -2.83511300      -6.06348400       0.15929100
O        0.00091800       3.57225500       3.28060700
O        0.00091800       2.47131300       5.64595100
O        1.31526900       1.31336200       3.69296600
O        1.90576200       4.75202300      -4.12751900
O        2.49139600       2.48950000      -2.90476200
H       -5.35954900       2.14965000      -4.85619000
H        6.97614100      -3.15845900       0.31426100
H        2.65849000      -0.00098000       6.60827100
H        5.36139100      -2.15161000      -4.85619000
H       -7.00794100      -0.00095000       2.64170700
H       -2.65664500      -0.00097500       6.60826800
H       -2.14971000       5.35949000      -4.85618900
H       -5.35955000      -2.15161000      -4.85619000
H        6.97613800       3.15650600       0.31426500
H        7.00979100      -0.00098000       2.64171100
H       -3.15656100       6.97424000       0.31426000
H        0.00092100       7.00789100       2.64171000
H        0.00091900      -2.65854000       6.60827100
H        3.15839900       6.97424100       0.31426000
H       -6.97430000      -3.15846200       0.31426200
H        2.15155100      -5.36145100      -4.85619000
H       -6.97430000       3.15649900       0.31425900
H        5.36139100       2.14965000      -4.85619000
H       -2.14971000      -5.36143900      -4.85620000
H        3.15840100      -6.97620000       0.31426100
H        0.00092000      -7.00984100       2.64171000
H       -3.15655900      -6.97620100       0.31426000
H        0.00092100       2.65658900       6.60827100
H        2.15154900       5.35948900      -4.85619100
