55
Properties=species:S:1:pos:R:3 pbc="F F F"
Ba      -0.02357700       0.28159700       0.12894100
Si       0.57109900       0.31252300       3.43450000
Si       0.57110100      -0.30513200      -3.43659000
Si      -2.88012200      -1.53063000       0.24106100
Al      -0.46241400       2.28018600      -2.15402300
Si      -1.19705000      -2.62182200      -2.15401000
Si      -1.19705000       2.62920200       2.15192000
Si      -0.46240100      -2.27280200       2.15191800
Si      -2.88013600       1.53801600      -0.24316800
Si       2.76676600      -0.94532500      -1.24160200
Si       1.22067000      -3.36398200      -0.24314900
Si       1.22067100       3.37137000       0.24106000
Al       2.76676600       0.95270600       1.23952300
O       -1.74493000       3.66843000       3.28043000
O       -2.42769800       2.19684700       1.17548400
O       -0.03696000      -3.34830100      -1.27562000
O       -0.59314000       1.30468000       2.87625000
O        0.85957000       0.64095000       5.00121000
O       -0.59314000      -1.29730000      -2.87834000
O        0.08548200      -1.23357100       3.28042900
O        1.93664800       0.53605100       2.57610800
O        0.85956900      -0.63357000      -5.00329000
O        0.08548200       1.24095900      -3.28251800
O        1.93664800      -0.52866000      -2.57819900
O       -4.10869800      -2.39535200       0.87134800
O       -2.42769900      -2.18945800      -1.17757400
O       -1.62249500      -1.54631800       1.27354400
O       -3.36573600       0.00369000      -0.00103900
O       -1.06630800       3.60470000      -2.87833700
O        0.76826100       2.71253700      -1.17756800
O       -1.62247700       1.55370200      -1.27560700
O       -1.74493000      -3.66104000      -3.28252000
O       -0.03696000       3.35568100       1.27353000
O       -1.06631000      -3.59732000       2.87624700
O        0.76826100      -2.70514700       1.17547800
O       -4.10869700       2.40273300      -0.87343700
O        2.31022800       0.00369200      -0.00104800
O        4.35852900      -0.75905900      -1.51772900
O        2.44925000      -2.49927100      -0.87344000
O        1.70629000      -4.89831000      -0.00104000
O        2.44924900       2.50665200       0.87135000
O        1.70629000       4.90569000      -0.00104100
O        4.35852900       0.76644100       1.51563800
H       -2.07453000       4.29362000       3.95933000
H        1.03337000       0.83884000       5.94515000
H        1.03337000      -0.83145000      -5.94724000
H       -4.84770100      -2.91547900       1.25047000
H       -1.43030000       4.40302000      -3.31491100
H       -2.07453000      -4.28623000      -3.96142000
H       -1.43030000      -4.39564000       3.31282100
H       -4.84770000       2.92287000      -1.25256000
H        5.31775000      -0.64680100      -1.68412000
H        1.99872000      -5.82223000       0.14475000
H        1.99872000       5.82961000      -0.14683000
H        5.31775000       0.65419100       1.68204000
