145
Properties=species:S:1:pos:R:3 pbc="F F F"
Ba       0.04478300      -0.00166300       0.01853000
Si      -3.34608000       1.55498000       5.53771000
Al       3.75629000      -3.34961000       1.55644000
Si      -3.74922000       3.34961000      -1.55352000
Si       5.53978000       1.55498000       3.35108000
Si      -5.53271000      -1.55498000       3.35108000
Si       3.35314000      -1.55498000      -5.53478000
Si       1.55851000       3.34961000       3.75422000
Si      -1.55145000      -3.34961000      -3.75129000
Si       3.75629000      -3.34961000      -1.55352000
Si       3.35314000       1.55498000      -5.53478000
Si      -3.74922000       3.34961000       1.55644000
Si       5.53978000       1.55498000      -3.34815000
Si      -5.53271000       1.55498000      -3.34815000
Si      -3.34608000      -1.55498000       5.53771000
Si       1.55851000       3.34961000      -3.75129000
Si      -3.74922000      -3.34961000       1.55644000
Si      -1.55145000      -3.34961000       3.75422000
Si       5.53978000      -1.55498000       3.35108000
Si       3.35314000       1.55498000       5.53771000
Si      -5.53271000       1.55498000       3.35108000
Si      -3.34608000      -1.55498000      -5.53478000
Si       1.55851000      -3.34961000       3.75422000
Si       3.75629000       3.34961000      -1.55352000
Si      -1.55145000       3.34961000      -3.75129000
Si      -3.34608000       1.55498000      -5.53478000
Si      -3.74922000      -3.34961000      -1.55352000
Si       5.53978000      -1.55498000      -3.34815000
Si      -5.53271000      -1.55498000      -3.34815000
Si       1.55851000      -3.34961000      -3.75129000
Si       3.35314000      -1.55498000       5.53771000
Al       3.75629000       3.34961000       1.55644000
Si      -1.55145000       3.34961000       3.75422000
O       -6.92420000       2.36126000       3.44025000
O        1.70899000       4.74111000      -4.54643000
O        2.36480000       3.43879000      -2.35980000
O       -3.44455000      -3.06909000       0.00146000
O       -4.54436000      -4.74111000       1.70692000
O       -2.35773000      -3.43879000       2.36273000
O        0.00353000      -3.06909000       3.44954000
O       -1.70193000      -4.74111000       4.54936000
O       -2.14780000      -2.15133000      -4.64304000
O       -4.73757000      -1.70546000       4.74257000
O       -4.64097000      -2.15133000       2.15280000
O       -2.35773000      -3.43879000      -2.35980000
O        4.55143000      -4.74111000      -1.70400000
O        4.64803000      -2.15133000      -2.14987000
O        2.36480000      -3.43879000      -2.35980000
O        4.74464000       1.70546000      -4.73964000
O       -5.83739000       0.00000000       3.07055000
O       -3.06555000       0.00000000       5.84239000
O       -4.73757000       1.70546000       4.74257000
O        3.45161000      -3.06909000       0.00146000
O       -2.14780000       2.15133000       4.64596000
O       -3.43526000       2.36126000       6.92920000
O        4.55143000      -4.74111000       1.70692000
O        4.64803000      -2.15133000       2.15280000
O       -6.92420000       2.36126000      -3.43732000
O       -2.14780000      -2.15133000       4.64596000
O        1.70899000      -4.74111000      -4.54643000
O        3.07262000       0.00000000      -5.83946000
O        4.74464000      -1.70546000      -4.73964000
O        2.15486000      -2.15133000      -4.64304000
O        3.44232000      -2.36126000      -6.92627000
O        0.00353000       3.06909000       3.44954000
O        1.70899000       4.74111000       4.54936000
O        2.15486000       2.15133000       4.64596000
O        2.36480000       3.43879000       2.36273000
O        0.00353000      -3.06909000      -3.44661000
O       -1.70193000      -4.74111000      -4.54643000
O        3.44232000      -2.36126000       6.92920000
O        4.55143000       4.74111000       1.70692000
O       -1.70193000       4.74111000       4.54936000
O        2.36480000      -3.43879000       2.36273000
O       -3.44455000       3.06909000       0.00146000
O       -4.54436000       4.74111000      -1.70400000
O       -4.64097000       2.15133000      -2.14987000
O       -2.35773000       3.43879000      -2.35980000
O        5.84445000       0.00000000       3.07055000
O        4.74464000       1.70546000       4.74257000
O        4.64803000       2.15133000       2.15280000
O        6.93127000       2.36126000       3.44025000
O       -6.92420000      -2.36126000       3.44025000
O        1.70899000      -4.74111000       4.54936000
O        2.15486000      -2.15133000       4.64596000
O        3.45161000       3.06909000       0.00146000
O       -3.06555000       0.00000000      -5.83946000
O       -4.73757000      -1.70546000      -4.73964000
O       -3.43526000      -2.36126000      -6.92627000
O        4.74464000      -1.70546000       4.74257000
O        6.93127000      -2.36126000       3.44025000
O        3.07262000       0.00000000       5.84239000
O        3.44232000       2.36126000       6.92920000
O       -3.43526000      -2.36126000       6.92920000
O        0.00353000       3.06909000      -3.44661000
O        2.15486000       2.15133000      -4.64304000
O        3.44232000       2.36126000      -6.92627000
O       -4.54436000       4.74111000       1.70692000
O       -4.64097000       2.15133000       2.15280000
O       -2.35773000       3.43879000       2.36273000
O        5.84445000       0.00000000      -3.06762000
O        4.64803000       2.15133000      -2.14987000
O        6.93127000       2.36126000      -3.43732000
O       -5.83739000       0.00000000      -3.06762000
O       -4.73757000       1.70546000      -4.73964000
O        4.55143000       4.74111000      -1.70400000
O       -1.70193000       4.74111000      -4.54643000
O       -2.14780000       2.15133000      -4.64304000
O       -3.43526000       2.36126000      -6.92627000
O       -4.54436000      -4.74111000      -1.70400000
O       -4.64097000      -2.15133000      -2.14987000
O        6.93127000      -2.36126000      -3.43732000
O       -6.92420000      -2.36126000      -3.43732000
H       -7.77084000       2.85184000       3.49451000
H        1.80061000       5.58826000      -5.03052000
H       -5.02845000      -5.58826000       1.79854000
H       -1.79354000      -5.58826000       5.03344000
H        5.03551000      -5.58826000      -1.79561000
H       -3.48951000       2.85184000       7.77584000
H        5.03551000      -5.58826000       1.79854000
H       -7.77084000       2.85184000      -3.49158000
H        1.80061000      -5.58826000      -5.03052000
H        3.49658000      -2.85184000      -7.77291000
H        1.80061000       5.58826000       5.03344000
H       -1.79354000      -5.58826000      -5.03052000
H        3.49658000      -2.85184000       7.77584000
H        5.03551000       5.58826000       1.79854000
H       -1.79354000       5.58826000       5.03344000
H       -5.02845000       5.58826000      -1.79561000
H        7.77790000       2.85184000       3.49451000
H       -7.77084000      -2.85184000       3.49451000
H        1.80061000      -5.58826000       5.03344000
H       -3.48951000      -2.85184000      -7.77291000
H        7.77790000      -2.85184000       3.49451000
H        3.49658000       2.85184000       7.77584000
H       -3.48951000      -2.85184000       7.77584000
H        3.49658000       2.85184000      -7.77291000
H       -5.02845000       5.58826000       1.79854000
H        7.77790000       2.85184000      -3.49158000
H        5.03551000       5.58826000      -1.79561000
H       -1.79354000       5.58826000      -5.03052000
H       -3.48951000       2.85184000      -7.77291000
H       -5.02845000      -5.58826000      -1.79561000
H        7.77790000      -2.85184000      -3.49158000
H       -7.77084000      -2.85184000      -3.49158000
