55
Properties=species:S:1:pos:R:3 pbc="F F F"
Rb      -0.14161100      -0.28416900      -0.32368700
Si       0.56748400       0.30569400       3.43284400
Si       0.56699600      -0.31202300      -3.43814900
Si      -2.88420200      -1.53751800       0.23948900
Si      -0.46651000       2.27330500      -2.15559000
Al      -1.20115100      -2.62867600      -2.15557700
Si      -1.20112500       2.62233400       2.15039600
Si      -0.46648200      -2.27966200       2.15036100
Si      -2.88421600       1.53115200      -0.24471200
Si       2.76266400      -0.95220300      -1.24315800
Si       1.21657300      -3.37084300      -0.24471200
Si       1.21658200       3.36449800       0.23951800
Si       2.76267000       0.94585200       1.23796200
O       -1.74905400       3.66156900       3.27885000
O       -2.43180300       2.18998300       1.17392900
O       -0.04105000      -3.35516100      -1.27716700
O       -0.59724000       1.29782300       2.87469500
O        0.85514700       0.63405600       4.99971700
O       -0.59725600      -1.30415700      -2.87988700
O        0.08137300      -1.24044100       3.27887500
O        1.93254900       0.52917400       2.57455900
O        0.85548000      -0.64042800      -5.00485100
O        0.08139800       1.23409500      -3.28407700
O        1.93255100      -0.53552200      -2.57975200
O       -4.11279900      -2.40219700       0.86979600
O       -2.43180100      -2.19633400      -1.17912500
O       -1.62658800      -1.55318500       1.27197600
O       -3.36984300      -0.00316800      -0.00259800
O       -1.07039700       3.59785000      -2.87988800
O        0.76415500       2.70566400      -1.17912400
O       -1.62657400       1.54684100      -1.27716300
O       -1.74902800      -3.66791100      -3.28407900
O       -0.04105500       3.34881200       1.27196300
O       -1.07039900      -3.60418100       2.87469300
O        0.76415400      -2.71201200       1.17392700
O       -4.11279100       2.39587100      -0.87499000
O        2.30609600      -0.00316900      -0.00260000
O        4.35443200      -0.76592000      -1.51928000
O        2.44516200      -2.50613000      -0.87498800
O        1.70220200      -4.90517100      -0.00260100
O        2.44516200       2.49979000       0.86978500
O        1.70220100       4.89883000      -0.00260300
O        4.35443100       0.75957900       1.51407900
H       -2.07861300       4.28674700       3.95777700
H        1.02928300       0.83197000       5.94359900
H        1.02928100      -0.83832100      -5.94880000
H       -4.85179800      -2.92235400       1.24891100
H       -1.43439900       4.39615900      -3.31646300
H       -2.07862100      -4.29309900      -3.96298000
H       -1.43440100      -4.40250100       3.31125900
H       -4.85180000       2.91600000      -1.25412100
H        5.31366000      -0.65367000      -1.68568000
H        1.99461900      -5.82910000       0.14319100
H        1.99462000       5.82275000      -0.14838800
H        5.31366000       0.64732100       1.68048000
