55
Properties=species:S:1:pos:R:3 pbc="F F F"
Ba      -0.00004200      -0.12409500      -0.27437400
Si       0.57229000       0.30956000       3.43303000
Al       0.57229000      -0.30809000      -3.43806000
Si      -2.87894000      -1.53359000       0.23960000
Si      -0.46121000       2.27722000      -2.15548000
Si      -1.19587000      -2.62478000      -2.15548000
Si      -1.19587000       2.62624000       2.15045000
Si      -0.46121000      -2.27576000       2.15045000
Si      -2.87894000       1.53506000      -0.24462000
Si       2.76795000      -0.94829000      -1.24307000
Si       1.22186000      -3.36694000      -0.24462000
Si       1.22186000       3.36841000       0.23960000
Al       2.76795000       0.94976000       1.23804000
O       -1.74375000       3.66547000       3.27896000
O       -2.42652000       2.19389000       1.17402000
O       -0.03578000      -3.35126000      -1.27709000
O       -0.59196000       1.30172000       2.87478000
O        0.86075000       0.63799000       4.99974000
O       -0.59196000      -1.30026000      -2.87981000
O        0.08667000      -1.23653000       3.27896000
O        1.93783000       0.53309000       2.57465000
O        0.86075000      -0.63653000      -5.00476000
O        0.08667000       1.23800000      -3.28399000
O        1.93783000      -0.53162000      -2.57967000
O       -4.10751000      -2.39831000       0.86988000
O       -2.42652000      -2.19242000      -1.17904000
O       -1.62131000      -1.54928000       1.27206000
O       -3.36456000       0.00073000      -0.00251000
O       -1.06512000       3.60174000      -2.87981000
O        0.76944000       2.70958000      -1.17904000
O       -1.62131000       1.55074000      -1.27709000
O       -1.74375000      -3.66400000      -3.28399000
O       -0.03578000       3.35272000       1.27206000
O       -1.06512000      -3.60028000       2.87478000
O        0.76944000      -2.70811000       1.17402000
O       -4.10751000       2.39977000      -0.87491000
O        2.31139000       0.00073000      -0.00251000
O        4.35971000      -0.76202000      -1.51920000
O        2.45043000      -2.50223000      -0.87491000
O        1.70748000      -4.90127000      -0.00251000
O        2.45043000       2.50369000       0.86988000
O        1.70748000       4.90273000      -0.00251000
O        4.35971000       0.76348000       1.51417000
H       -2.07335000       4.29066000       3.95786000
H        1.03456000       0.83588000       5.94368000
H        1.03456000      -0.83441000      -5.94871000
H       -4.84652000      -2.91844000       1.24900000
H       -1.42912000       4.40006000      -3.31638000
H       -2.07335000      -4.28919000      -3.96289000
H       -1.42912000      -4.39860000       3.31135000
H       -4.84652000       2.91991000      -1.25403000
H        5.31893000      -0.64976000      -1.68559000
H        1.99990000      -5.82519000       0.14328000
H        1.99990000       5.82665000      -0.14830000
H        5.31893000       0.65123000       1.68057000
