109
Properties=species:S:1:pos:R:3 pbc="F F F"
Ba       0.00017500      -0.03235500      -0.02576800
Si      -2.16795000      -0.00462000       4.06093000
Si      -1.50108000       3.75049000      -2.93484000
Si       2.30739000       4.55680000      -0.09988000
Si      -4.56143000      -2.31201000      -0.09988000
Si      -4.50808000      -0.00461300       1.96478000
Al       1.50107000      -3.75974000      -2.93484000
Si      -2.30739000      -4.56605000      -0.09988000
Si       0.00000000       2.16333000       4.06093000
Si       1.50107000       3.75049000      -2.93484000
Si      -2.30739000       4.55680000      -0.09988000
Si       0.00000000       4.50345000       1.96478000
Si       0.00000000      -2.17257000       4.06093000
Si       3.75511000       1.49645000      -2.93484000
Al      -1.50108000      -3.75974000      -2.93484000
Si       2.30739000      -4.56605000      -0.09988000
Si       0.00000000      -4.51270000       1.96478000
Si      -3.75511000      -1.50570000      -2.93484000
Si      -4.56143000       2.30276000      -0.09988000
Si      -3.75511000       1.49645000      -2.93484000
Si       4.56142000      -2.31201000      -0.09988000
Si       2.16795000      -0.00462000       4.06093000
Si       3.75511000      -1.50570000      -2.93484000
Si       4.56142000       2.30276000      -0.09988000
Si       4.50807000      -0.00462000       1.96478000
O       -4.75300000       1.90021000      -4.13183000
O        4.51292000      -1.55420000      -1.51736000
O        4.15766000      -1.31412000       1.09711000
O        6.06250000      -2.84066000       0.15498000
O        3.57324000      -0.00462000       3.27631000
O        2.47229000      -0.00462000       5.64164000
O        4.75300000      -1.90946000      -4.13183000
O       -1.30950000       4.15304000       1.09711000
O       -6.06250000      -0.00462600       2.38286000
O        1.54957000      -4.51755000      -1.51736000
O       -4.15766000       1.30488000       1.09711000
O       -3.57324000      -0.00462100       3.27631000
O       -2.47229000      -0.00462000       5.64164000
O       -1.54958000       4.50830000      -1.51736000
O       -1.31435000      -1.31897000       3.68866000
O       -1.31435000       1.30973000       3.68866000
O       -1.90484000       4.74838000      -4.13183000
O        0.00000000       3.22184000      -3.18970000
O       -4.75300000      -1.90946000      -4.13183000
O       -3.22646000      -0.00462000      -3.18970000
O        4.15766000       1.30488000       1.09711000
O        6.06250000       2.83141000       0.15498000
O        6.06250000      -0.00462000       2.38286000
O       -2.83604000       6.05788000       0.15498000
O       -3.57203000       3.56740000      -0.12565000
O        0.00000000       6.05788000       2.38286000
O        0.00000000      -3.57786000       3.27631000
O        0.00000000      -2.47691000       5.64164000
O       -2.49048000       2.48585000      -2.90907000
O        1.54957000       4.50830000      -1.51736000
O        1.30950000       4.15304000       1.09711000
O        2.83604000       6.05788000       0.15498000
O        3.57202000       3.56740000      -0.12565000
O       -4.51293000      -1.55420000      -1.51736000
O       -4.15766000      -1.31412000       1.09711000
O       -6.06250000      -2.84066000       0.15498000
O       -3.57203000      -3.57665000      -0.12565000
O        1.90484000      -4.75762000      -4.13183000
O       -4.51293000       1.54495000      -1.51736000
O       -6.06250000       2.83141000       0.15498000
O        1.31435000      -1.31897000       3.68866000
O        4.51292000       1.54495000      -1.51736000
O        4.75300000       1.90021000      -4.13183000
O        3.22646000      -0.00462000      -3.18970000
O       -1.90484000      -4.75762000      -4.13183000
O       -2.49048000      -2.49510000      -2.90907000
O        1.30950000      -4.16229000       1.09711000
O        2.83604000      -6.06712000       0.15498000
O        3.57202000      -3.57665000      -0.12565000
O        0.00000000      -6.06712000       2.38286000
O        0.00000000      -3.23109000      -3.18970000
O        2.49047000      -2.49510000      -2.90907000
O       -1.54958000      -4.51755000      -1.51736000
O       -1.30950000      -4.16229000       1.09711000
O       -2.83604000      -6.06712000       0.15498000
O        0.00000000       3.56861000       3.27631000
O        0.00000000       2.46766000       5.64164000
O        1.31435000       1.30973000       3.68866000
O        1.90484000       4.74838000      -4.13183000
O        2.49047000       2.48585000      -2.90907000
H       -5.36047000       2.14601000      -4.86050000
H        6.97522000      -3.16210000       0.30995000
H        2.65757000      -0.00462000       6.60397000
H        5.36047000      -2.15525000      -4.86050000
H       -7.00887000      -0.00461900       2.63740000
H       -2.65757000      -0.00462000       6.60397000
H       -2.15063000       5.35585000      -4.86050000
H       -5.36047000      -2.15525000      -4.86050000
H        6.97522000       3.15286000       0.30995000
H        7.00887000      -0.00462000       2.63740000
H       -3.15748000       6.97060000       0.30995000
H        0.00000000       7.00424000       2.63740000
H        0.00000000      -2.66219000       6.60397000
H        3.15748000       6.97060000       0.30995000
H       -6.97522000      -3.16210000       0.30995000
H        2.15063000      -5.36509000      -4.86050000
H       -6.97522000       3.15286000       0.30995000
H        5.36047000       2.14601000      -4.86050000
H       -2.15063000      -5.36509000      -4.86050000
H        3.15748000      -6.97984000       0.30995000
H        0.00000000      -7.01349000       2.63740000
H       -3.15748000      -6.97984000       0.30995000
H        0.00000000       2.65294000       6.60397000
H        2.15063000       5.35585000      -4.86050000
