55
Properties=species:S:1:pos:R:3 pbc="F F F"
Ba      -0.00096000      -0.35019700      -0.28654200
Si       1.54003000       0.46243000      -3.08011000
Al      -3.10058000      -1.21052000      -0.96590000
Si       1.54277000       2.88298000      -1.12312000
Si      -1.54003000      -0.46796000       3.07569000
Si       3.10058000       1.20499000       0.96149000
Al       3.10058000      -1.21052000      -0.96590000
Si      -1.54003000       0.46243000      -3.08011000
Si       1.54277000      -2.88851000       1.11871000
Si      -3.10058000       1.20499000       0.96149000
Si       1.54003000      -0.46796000       3.07569000
Si      -1.54277000       2.88298000      -1.12312000
Si      -1.54277000      -2.88851000       1.11871000
O        3.55055000      -0.00277000      -0.00221000
O        2.00368000      -2.11822000      -0.21677000
O        4.38485000       2.10512000       1.32773000
O        0.00000000       0.00228000      -2.98762000
O        1.98180000       0.54942000      -4.62646000
O       -2.46733000      -0.61168000      -2.31988000
O        1.71236000       1.90719000      -2.39387000
O        2.46733000      -0.61168000      -2.31988000
O       -2.00368000      -2.11822000      -0.21677000
O       -4.38485000      -2.11066000      -1.33214000
O       -3.55055000      -0.00277000      -0.00221000
O        2.00368000       2.11269000       0.21236000
O        0.00000000       3.32044000      -0.98625000
O        2.45365000       4.19284000      -1.33214000
O        0.00000000      -0.00781000       2.98321000
O       -1.98180000      -0.55495000       4.62204000
O       -1.71236000      -1.91273000       2.38946000
O       -2.46733000       0.60615000       2.31547000
O        2.46733000       0.60615000       2.31547000
O        4.38485000      -2.11066000      -1.33214000
O       -1.98180000       0.54942000      -4.62646000
O       -1.71236000       1.90719000      -2.39387000
O        1.71236000      -1.91273000       2.38946000
O        0.00000000      -3.32597000       0.98183000
O        2.45365000      -4.19838000       1.32773000
O       -2.00368000       2.11269000       0.21236000
O       -4.38485000       2.10512000       1.32773000
O        1.98180000      -0.55495000       4.62204000
O       -2.45365000       4.19284000      -1.33214000
O       -2.45365000      -4.19838000       1.32773000
H        5.16633000       2.65286000       1.55059000
H        2.25060000       0.60235000      -5.56738000
H       -5.16633000      -2.65839000      -1.55500000
H        3.00842000       4.99061000      -1.45944000
H       -2.25061000      -0.60788000       5.56297000
H        5.16633000      -2.65839000      -1.55500000
H       -2.25061000       0.60235000      -5.56738000
H        3.00842000      -4.99614000       1.45503000
H       -5.16633000       2.65286000       1.55059000
H        2.25060000      -0.60788000       5.56297000
H       -3.00842000       4.99061000      -1.45944000
H       -3.00842000      -4.99614000       1.45503000
