109
Properties=species:S:1:pos:R:3 pbc="F F F"
Ba      -0.03093200      -0.01403000      -0.01435400
Si      -2.17168000      -0.00188000       4.06268000
Si      -1.50481000       3.75323000      -2.93310000
Si       2.30366000       4.55954000      -0.09813000
Si      -4.56516000      -2.30927000      -0.09813000
Si      -4.51181000      -0.00187400       1.96652000
Si       1.49734000      -3.75700000      -2.93310000
Al      -2.31112000      -4.56331000      -0.09813000
Si      -0.00373000       2.16607000       4.06268000
Si       1.49734000       3.75323000      -2.93310000
Si      -2.31112000       4.55954000      -0.09813000
Si      -0.00372700       4.50619000       1.96652000
Si      -0.00373000      -2.16983000       4.06268000
Si       3.75138000       1.49919000      -2.93310000
Si      -1.50481000      -3.75700000      -2.93310000
Si       2.30366000      -4.56331000      -0.09813000
Si      -0.00373000      -4.50996000       1.96652000
Si      -3.75884000      -1.50296000      -2.93310000
Si      -4.56516000       2.30550000      -0.09813000
Al      -3.75884000       1.49919000      -2.93310000
Si       4.55769000      -2.30927000      -0.09813000
Si       2.16422000      -0.00188000       4.06268000
Si       3.75138000      -1.50296000      -2.93310000
Si       4.55769000       2.30550000      -0.09813000
Si       4.50434000      -0.00188000       1.96652000
O       -4.75673000       1.90295000      -4.13008000
O        4.50919000      -1.55146000      -1.51562000
O        4.15393000      -1.31138000       1.09885000
O        6.05877000      -2.83792000       0.15673000
O        3.56951000      -0.00188000       3.27805000
O        2.46856000      -0.00188000       5.64338000
O        4.74927000      -1.90672000      -4.13008000
O       -1.31323000       4.15578000       1.09885000
O       -6.06623000      -0.00188500       2.38461000
O        1.54584000      -4.51481000      -1.51562000
O       -4.16139000       1.30762000       1.09885000
O       -3.57697000      -0.00188100       3.27805000
O       -2.47602000      -0.00188000       5.64338000
O       -1.55331000       4.51104000      -1.51562000
O       -1.31808000      -1.31623000       3.69041000
O       -1.31808000       1.31247000       3.69041000
O       -1.90857000       4.75112000      -4.13008000
O       -0.00373000       3.22458000      -3.18796000
O       -4.75673000      -1.90672000      -4.13008000
O       -3.23019000      -0.00188000      -3.18796000
O        4.15393000       1.30762000       1.09885000
O        6.05877000       2.83415000       0.15673000
O        6.05877000      -0.00188000       2.38461000
O       -2.83977000       6.06062000       0.15673000
O       -3.57576000       3.57014000      -0.12391000
O       -0.00373300       6.06062000       2.38461000
O       -0.00373100      -3.57512000       3.27805000
O       -0.00373000      -2.47417000       5.64338000
O       -2.49421000       2.48859000      -2.90733000
O        1.54584000       4.51104000      -1.51562000
O        1.30577000       4.15578000       1.09885000
O        2.83231000       6.06062000       0.15673000
O        3.56829000       3.57014000      -0.12391000
O       -4.51666000      -1.55146000      -1.51562000
O       -4.16139000      -1.31138000       1.09885000
O       -6.06623000      -2.83792000       0.15673000
O       -3.57576000      -3.57391000      -0.12391000
O        1.90111000      -4.75488000      -4.13008000
O       -4.51666000       1.54769000      -1.51562000
O       -6.06623000       2.83415000       0.15673000
O        1.31062000      -1.31623000       3.69041000
O        4.50919000       1.54769000      -1.51562000
O        4.74927000       1.90295000      -4.13008000
O        3.22273000      -0.00188000      -3.18796000
O       -1.90857000      -4.75488000      -4.13008000
O       -2.49421000      -2.49236000      -2.90733000
O        1.30577000      -4.15955000       1.09885000
O        2.83231000      -6.06438000       0.15673000
O        3.56829000      -3.57391000      -0.12391000
O       -0.00373000      -6.06438000       2.38461000
O       -0.00373000      -3.22835000      -3.18796000
O        2.48674000      -2.49236000      -2.90733000
O       -1.55331000      -4.51481000      -1.51562000
O       -1.31323000      -4.15955000       1.09885000
O       -2.83977000      -6.06438000       0.15673000
O       -0.00373000       3.57135000       3.27805000
O       -0.00373000       2.47040000       5.64338000
O        1.31062000       1.31247000       3.69041000
O        1.90111000       4.75112000      -4.13008000
O        2.48674000       2.48859000      -2.90733000
H       -5.36420000       2.14875000      -4.85876000
H        6.97149000      -3.15936000       0.31169000
H        2.65383000      -0.00188000       6.60571000
H        5.35674000      -2.15251000      -4.85876000
H       -7.01260000      -0.00187900       2.63915000
H       -2.66130000      -0.00188000       6.60571000
H       -2.15436000       5.35859000      -4.85876000
H       -5.36420000      -2.15251000      -4.85876000
H        6.97149000       3.15560000       0.31169000
H        7.00513000      -0.00188000       2.63915000
H       -3.16121000       6.97334000       0.31169000
H       -0.00372900       7.00698000       2.63915000
H       -0.00373000      -2.65945000       6.60571000
H        3.15375000       6.97334000       0.31169000
H       -6.97895000      -3.15936000       0.31169000
H        2.14690000      -5.36235000      -4.85876000
H       -6.97895000       3.15560000       0.31169000
H        5.35674000       2.14875000      -4.85876000
H       -2.15436000      -5.36235000      -4.85876000
H        3.15375000      -6.97710000       0.31169000
H       -0.00373000      -7.01075000       2.63915000
H       -3.16121000      -6.97710000       0.31169000
H       -0.00373000       2.65568000       6.60571000
H        2.14690000       5.35859000      -4.85876000
