145
Properties=species:S:1:pos:R:3 pbc="F F F"
Sr       0.04438600      -0.00176800       0.01835200
Si      -3.34600000       1.55498000       5.53774000
Al       3.75636000      -3.34961000       1.55647000
Si      -3.74915000       3.34961000      -1.55348000
Si       5.53985000       1.55498000       3.35111000
Si      -5.53264000      -1.55498000       3.35111000
Si       3.35322000      -1.55498000      -5.53475000
Si       1.55859000       3.34961000       3.75425000
Si      -1.55137000      -3.34961000      -3.75126000
Si       3.75636000      -3.34961000      -1.55348000
Si       3.35322000       1.55498000      -5.53475000
Si      -3.74915000       3.34961000       1.55647000
Si       5.53985000       1.55498000      -3.34812000
Si      -5.53264000       1.55498000      -3.34812000
Si      -3.34600000      -1.55498000       5.53774000
Si       1.55859000       3.34961000      -3.75126000
Si      -3.74915000      -3.34961000       1.55647000
Si      -1.55137000      -3.34961000       3.75425000
Si       5.53985000      -1.55498000       3.35111000
Si       3.35322000       1.55498000       5.53774000
Si      -5.53264000       1.55498000       3.35111000
Si      -3.34600000      -1.55498000      -5.53475000
Si       1.55859000      -3.34961000       3.75425000
Si       3.75636000       3.34961000      -1.55348000
Si      -1.55137000       3.34961000      -3.75126000
Si      -3.34600000       1.55498000      -5.53475000
Si      -3.74915000      -3.34961000      -1.55348000
Si       5.53985000      -1.55498000      -3.34812000
Si      -5.53264000      -1.55498000      -3.34812000
Si       1.55859000      -3.34961000      -3.75126000
Si       3.35322000      -1.55498000       5.53774000
Al       3.75636000       3.34961000       1.55647000
Si      -1.55137000       3.34961000       3.75425000
O       -6.92413000       2.36126000       3.44028000
O        1.70907000       4.74111000      -4.54640000
O        2.36487000       3.43879000      -2.35977000
O       -3.44447000      -3.06909000       0.00150000
O       -4.54429000      -4.74111000       1.70696000
O       -2.35766000      -3.43879000       2.36276000
O        0.00361000      -3.06909000       3.44957000
O       -1.70185000      -4.74111000       4.54939000
O       -2.14772000      -2.15133000      -4.64300000
O       -4.73750000      -1.70546000       4.74260000
O       -4.64089000      -2.15133000       2.15283000
O       -2.35766000      -3.43879000      -2.35977000
O        4.55150000      -4.74111000      -1.70396000
O        4.64811000      -2.15133000      -2.14984000
O        2.36487000      -3.43879000      -2.35977000
O        4.74471000       1.70546000      -4.73961000
O       -5.83731000       0.00000000       3.07058000
O       -3.06548000       0.00000000       5.84242000
O       -4.73750000       1.70546000       4.74260000
O        3.45169000      -3.06909000       0.00150000
O       -2.14772000       2.15133000       4.64600000
O       -3.43518000       2.36126000       6.92923000
O        4.55150000      -4.74111000       1.70696000
O        4.64811000      -2.15133000       2.15283000
O       -6.92413000       2.36126000      -3.43729000
O       -2.14772000      -2.15133000       4.64600000
O        1.70907000      -4.74111000      -4.54640000
O        3.07269000       0.00000000      -5.83943000
O        4.74471000      -1.70546000      -4.73961000
O        2.15494000      -2.15133000      -4.64300000
O        3.44240000      -2.36126000      -6.92624000
O        0.00361000       3.06909000       3.44957000
O        1.70907000       4.74111000       4.54939000
O        2.15494000       2.15133000       4.64600000
O        2.36487000       3.43879000       2.36276000
O        0.00361000      -3.06909000      -3.44658000
O       -1.70185000      -4.74111000      -4.54640000
O        3.44240000      -2.36126000       6.92923000
O        4.55150000       4.74111000       1.70696000
O       -1.70185000       4.74111000       4.54939000
O        2.36487000      -3.43879000       2.36276000
O       -3.44447000       3.06909000       0.00150000
O       -4.54429000       4.74111000      -1.70396000
O       -4.64089000       2.15133000      -2.14984000
O       -2.35766000       3.43879000      -2.35977000
O        5.84453000       0.00000000       3.07058000
O        4.74471000       1.70546000       4.74260000
O        4.64811000       2.15133000       2.15283000
O        6.93134000       2.36126000       3.44028000
O       -6.92413000      -2.36126000       3.44028000
O        1.70907000      -4.74111000       4.54939000
O        2.15494000      -2.15133000       4.64600000
O        3.45169000       3.06909000       0.00150000
O       -3.06548000       0.00000000      -5.83943000
O       -4.73750000      -1.70546000      -4.73961000
O       -3.43518000      -2.36126000      -6.92624000
O        4.74471000      -1.70546000       4.74260000
O        6.93134000      -2.36126000       3.44028000
O        3.07269000       0.00000000       5.84242000
O        3.44240000       2.36126000       6.92923000
O       -3.43518000      -2.36126000       6.92923000
O        0.00361000       3.06909000      -3.44658000
O        2.15494000       2.15133000      -4.64300000
O        3.44240000       2.36126000      -6.92624000
O       -4.54429000       4.74111000       1.70696000
O       -4.64089000       2.15133000       2.15283000
O       -2.35766000       3.43879000       2.36276000
O        5.84453000       0.00000000      -3.06759000
O        4.64811000       2.15133000      -2.14984000
O        6.93134000       2.36126000      -3.43729000
O       -5.83731000       0.00000000      -3.06759000
O       -4.73750000       1.70546000      -4.73961000
O        4.55150000       4.74111000      -1.70396000
O       -1.70185000       4.74111000      -4.54640000
O       -2.14772000       2.15133000      -4.64300000
O       -3.43518000       2.36126000      -6.92624000
O       -4.54429000      -4.74111000      -1.70396000
O       -4.64089000      -2.15133000      -2.14984000
O        6.93134000      -2.36126000      -3.43729000
O       -6.92413000      -2.36126000      -3.43729000
H       -7.77076000       2.85184000       3.49454000
H        1.80068000       5.58826000      -5.03049000
H       -5.02837000      -5.58826000       1.79857000
H       -1.79347000      -5.58826000       5.03348000
H        5.03559000      -5.58826000      -1.79558000
H       -3.48944000       2.85184000       7.77587000
H        5.03559000      -5.58826000       1.79857000
H       -7.77076000       2.85184000      -3.49155000
H        1.80068000      -5.58826000      -5.03049000
H        3.49665000      -2.85184000      -7.77288000
H        1.80068000       5.58826000       5.03348000
H       -1.79347000      -5.58826000      -5.03049000
H        3.49665000      -2.85184000       7.77587000
H        5.03559000       5.58826000       1.79857000
H       -1.79347000       5.58826000       5.03348000
H       -5.02837000       5.58826000      -1.79558000
H        7.77798000       2.85184000       3.49454000
H       -7.77076000      -2.85184000       3.49454000
H        1.80068000      -5.58826000       5.03348000
H       -3.48944000      -2.85184000      -7.77288000
H        7.77798000      -2.85184000       3.49454000
H        3.49665000       2.85184000       7.77587000
H       -3.48944000      -2.85184000       7.77587000
H        3.49665000       2.85184000      -7.77288000
H       -5.02837000       5.58826000       1.79857000
H        7.77798000       2.85184000      -3.49155000
H        5.03559000       5.58826000      -1.79558000
H       -1.79347000       5.58826000      -5.03049000
H       -3.48944000       2.85184000      -7.77288000
H       -5.02837000      -5.58826000      -1.79558000
H        7.77798000      -2.85184000      -3.49155000
H       -7.77076000      -2.85184000      -3.49155000
