109
Properties=species:S:1:pos:R:3 pbc="F F F"
Sr      -0.10056500      -0.16348200       0.09041400
Si      -2.16934000      -0.00289000       4.06577000
Si      -1.50247000       3.75222000      -2.93000000
Si       2.30599000       4.55854000      -0.09504000
Si      -4.56282000      -2.31028000      -0.09504000
Al      -4.50947000      -0.00289000       1.96962000
Si       1.49968000      -3.75800000      -2.93000000
Si      -2.30878000      -4.56431000      -0.09504000
Si      -0.00139000       2.16506000       4.06577000
Si       1.49968000       3.75222000      -2.93000000
Si      -2.30878000       4.55854000      -0.09504000
Si      -0.00139100       4.50519000       1.96962000
Si      -0.00139000      -2.17084000       4.06577000
Si       3.75372000       1.49819000      -2.93000000
Si      -1.50247000      -3.75800000      -2.93000000
Al       2.30599000      -4.56431000      -0.09504000
Si      -0.00139000      -4.51096000       1.96962000
Si      -3.75651000      -1.50396000      -2.93000000
Si      -4.56282000       2.30450000      -0.09504000
Si      -3.75651000       1.49819000      -2.93000000
Si       4.56003000      -2.31028000      -0.09504000
Si       2.16656000      -0.00289000       4.06577000
Si       3.75372000      -1.50396000      -2.93000000
Si       4.56003000       2.30450000      -0.09504000
Si       4.50668000      -0.00289000       1.96962000
O       -4.75439000       1.90195000      -4.12699000
O        4.51153000      -1.55246000      -1.51252000
O        4.15627000      -1.31239000       1.10195000
O        6.06111000      -2.83892000       0.15982000
O        3.57184000      -0.00289000       3.28115000
O        2.47089000      -0.00289000       5.64648000
O        4.75161000      -1.90772000      -4.12699000
O       -1.31089000       4.15477000       1.10195000
O       -6.06389000      -0.00289000       2.38770000
O        1.54818000      -4.51581000      -1.51252000
O       -4.15906000       1.30661000       1.10195000
O       -3.57463000      -0.00289000       3.28115000
O       -2.47368000      -0.00289000       5.64648000
O       -1.55097000       4.51004000      -1.51252000
O       -1.31574000      -1.31724000       3.69351000
O       -1.31574000       1.31146000       3.69351000
O       -1.90623000       4.75011000      -4.12699000
O       -0.00139000       3.22358000      -3.18486000
O       -4.75439000      -1.90772000      -4.12699000
O       -3.22786000      -0.00289000      -3.18486000
O        4.15627000       1.30661000       1.10195000
O        6.06111000       2.83315000       0.15982000
O        6.06111000      -0.00289000       2.38770000
O       -2.83743000       6.05961000       0.15982000
O       -3.57342000       3.56914000      -0.12081000
O       -0.00138900       6.05961000       2.38770000
O       -0.00139000      -3.57613000       3.28115000
O       -0.00139000      -2.47518000       5.64648000
O       -2.49187000       2.48759000      -2.90423000
O        1.54818000       4.51004000      -1.51252000
O        1.30811000       4.15477000       1.10195000
O        2.83464000       6.05961000       0.15982000
O        3.57063000       3.56914000      -0.12081000
O       -4.51432000      -1.55246000      -1.51252000
O       -4.15906000      -1.31239000       1.10195000
O       -6.06389000      -2.83892000       0.15982000
O       -3.57342000      -3.57491000      -0.12081000
O        1.90344000      -4.75589000      -4.12699000
O       -4.51432000       1.54669000      -1.51252000
O       -6.06389000       2.83315000       0.15982000
O        1.31296000      -1.31724000       3.69351000
O        4.51153000       1.54669000      -1.51252000
O        4.75161000       1.90195000      -4.12699000
O        3.22507000      -0.00289000      -3.18486000
O       -1.90623000      -4.75589000      -4.12699000
O       -2.49187000      -2.49336000      -2.90423000
O        1.30811000      -4.16055000       1.10195000
O        2.83464000      -6.06539000       0.15982000
O        3.57063000      -3.57491000      -0.12081000
O       -0.00139000      -6.06539000       2.38770000
O       -0.00139000      -3.22935000      -3.18486000
O        2.48908000      -2.49336000      -2.90423000
O       -1.55097000      -4.51581000      -1.51252000
O       -1.31089000      -4.16055000       1.10195000
O       -2.83743000      -6.06539000       0.15982000
O       -0.00139000       3.57035000       3.28115000
O       -0.00139000       2.46940000       5.64648000
O        1.31296000       1.31146000       3.69351000
O        1.90344000       4.75011000      -4.12699000
O        2.48908000       2.48759000      -2.90423000
H       -5.36186000       2.14774000      -4.85566000
H        6.97383000      -3.16037000       0.31479000
H        2.65617000      -0.00289000       6.60881000
H        5.35908000      -2.15352000      -4.85566000
H       -7.01026000      -0.00289000       2.64224000
H       -2.65896000      -0.00289000       6.60881000
H       -2.15202000       5.35758000      -4.85566000
H       -5.36186000      -2.15352000      -4.85566000
H        6.97383000       3.15459000       0.31479000
H        7.00747000      -0.00289000       2.64224000
H       -3.15887000       6.97233000       0.31479000
H       -0.00139000       7.00598000       2.64224000
H       -0.00139000      -2.66045000       6.60881000
H        3.15609000       6.97233000       0.31479000
H       -6.97661000      -3.16037000       0.31479000
H        2.14924000      -5.36336000      -4.85566000
H       -6.97661000       3.15459000       0.31479000
H        5.35908000       2.14774000      -4.85566000
H       -2.15202000      -5.36336000      -4.85566000
H        3.15609000      -6.97811000       0.31479000
H       -0.00139000      -7.01175000       2.64224000
H       -3.15887000      -6.97811000       0.31479000
H       -0.00139000       2.65468000       6.60881000
H        2.14924000       5.35758000      -4.85566000
