55
Properties=species:S:1:pos:R:3 pbc="F F F"
Sr      -0.01819300      -0.04143400      -0.45272900
Si       0.57062000       0.31252000       3.43169000
Al       0.57062000      -0.30513000      -3.43940000
Si      -2.88061000      -1.53063000       0.23825000
Si      -0.46288000       2.28018000      -2.15682000
Si      -1.19754000      -2.62182000      -2.15682000
Si      -1.19754000       2.62920000       2.14911000
Si      -0.46288000      -2.27280000       2.14911000
Si      -2.88061000       1.53802000      -0.24596000
Si       2.76628000      -0.94533000      -1.24441000
Si       1.22018000      -3.36398000      -0.24596000
Al       1.22018000       3.37137000       0.23825000
Si       2.76628000       0.95272000       1.23670000
O       -1.74542000       3.66843000       3.27762000
O       -2.42819000       2.19685000       1.17267000
O       -0.03745000      -3.34830000      -1.27843000
O       -0.59363000       1.30468000       2.87344000
O        0.85908000       0.64095000       4.99840000
O       -0.59363000      -1.29730000      -2.88115000
O        0.08500000      -1.23357000       3.27762000
O        1.93616000       0.53605000       2.57330000
O        0.85908000      -0.63357000      -5.00610000
O        0.08500000       1.24096000      -3.28533000
O        1.93616000      -0.52866000      -2.58101000
O       -4.10919000      -2.39535000       0.86854000
O       -2.42819000      -2.18946000      -1.18038000
O       -1.62298000      -1.54632000       1.27072000
O       -3.36623000       0.00369000      -0.00385000
O       -1.06680000       3.60470000      -2.88115000
O        0.76777000       2.71254000      -1.18038000
O       -1.62298000       1.55370000      -1.27843000
O       -1.74542000      -3.66104000      -3.28533000
O       -0.03745000       3.35568000       1.27072000
O       -1.06680000      -3.59732000       2.87344000
O        0.76777000      -2.70515000       1.17267000
O       -4.10919000       2.40273000      -0.87625000
O        2.30972000       0.00369000      -0.00385000
O        4.35804000      -0.75906000      -1.52054000
O        2.44876000      -2.49927000      -0.87625000
O        1.70581000      -4.89831000      -0.00385000
O        2.44876000       2.50665000       0.86854000
O        1.70581000       4.90569000      -0.00385000
O        4.35804000       0.76644000       1.51283000
H       -2.07502000       4.29362000       3.95652000
H        1.03289000       0.83884000       5.94234000
H        1.03289000      -0.83145000      -5.95005000
H       -4.84819000      -2.91548000       1.24766000
H       -1.43079000       4.40302000      -3.31772000
H       -2.07502000      -4.28623000      -3.96423000
H       -1.43079000      -4.39564000       3.31001000
H       -4.84819000       2.92287000      -1.25537000
H        5.31726000      -0.64680000      -1.68693000
H        1.99823000      -5.82223000       0.14194000
H        1.99823000       5.82961000      -0.14964000
H        5.31726000       0.65419000       1.67923000
