55
Properties=species:S:1:pos:R:3 pbc="F F F"
Sr      -0.06428000       0.85915600       0.53212600
Si       1.53815000       0.47014000      -3.07809000
Si      -3.10246000      -1.20281000      -0.96388000
Al       1.54089000       2.89068000      -1.12111000
Si      -1.54191000      -0.46026000       3.07771000
Si       3.09870000       1.21269000       0.96350000
Si       3.09870000      -1.20281000      -0.96388000
Si      -1.54191000       0.47014000      -3.07809000
Si       1.54089000      -2.88080000       1.12073000
Al      -3.10246000       1.21269000       0.96350000
Si       1.53815000      -0.46026000       3.07771000
Si      -1.54465000       2.89068000      -1.12111000
Si      -1.54465000      -2.88080000       1.12073000
O        3.54867000       0.00494000      -0.00019000
O        2.00180000      -2.11051000      -0.21475000
O        4.38297000       2.11283000       1.32974000
O       -0.00188000       0.00998000      -2.98561000
O        1.97992000       0.55713000      -4.62444000
O       -2.46921000      -0.60398000      -2.31786000
O        1.71048000       1.91490000      -2.39185000
O        2.46545000      -0.60398000      -2.31786000
O       -2.00556000      -2.11051000      -0.21475000
O       -4.38673000      -2.10295000      -1.33012000
O       -3.55243000       0.00494000      -0.00019000
O        2.00180000       2.12040000       0.21438000
O       -0.00188000       3.32815000      -0.98423000
O        2.45177000       4.20055000      -1.33012000
O       -0.00188000      -0.00010000       2.98523000
O       -1.98368000      -0.54725000       4.62406000
O       -1.71424000      -1.90502000       2.39147000
O       -2.46921000       0.61386000       2.31748000
O        2.46545000       0.61386000       2.31748000
O        4.38297000      -2.10295000      -1.33012000
O       -1.98368000       0.55713000      -4.62444000
O       -1.71424000       1.91490000      -2.39185000
O        1.71048000      -1.90502000       2.39147000
O       -0.00188000      -3.31826000       0.98385000
O        2.45177000      -4.19067000       1.32974000
O       -2.00556000       2.12040000       0.21438000
O       -4.38673000       2.11283000       1.32974000
O        1.97992000      -0.54725000       4.62406000
O       -2.45553000       4.20055000      -1.33012000
O       -2.45553000      -4.19067000       1.32974000
H        5.16445000       2.66057000       1.55260000
H        2.24872000       0.61006000      -5.56537000
H       -5.16821000      -2.65069000      -1.55298000
H        3.00654000       4.99831000      -1.45742000
H       -2.25249000      -0.60018000       5.56499000
H        5.16445000      -2.65069000      -1.55298000
H       -2.25249000       0.61006000      -5.56537000
H        3.00654000      -4.98843000       1.45704000
H       -5.16821000       2.66057000       1.55260000
H        2.24872000      -0.60018000       5.56499000
H       -3.01030000       4.99831000      -1.45742000
H       -3.01030000      -4.98843000       1.45704000
