145
Properties=species:S:1:pos:R:3 pbc="F F F"
Ba       0.00024300      -0.00050700       0.04672400
Si      -3.34961000       1.55498000       5.53978000
Si       3.75276000      -3.34961000       1.55851000
Si      -3.75276000       3.34961000      -1.55145000
Si       5.53624000       1.55498000       3.35314000
Si      -5.53624000      -1.55498000       3.35314000
Si       3.34961000      -1.55498000      -5.53271000
Al       1.55498000       3.34961000       3.75629000
Si      -1.55498000      -3.34961000      -3.74922000
Si       3.75276000      -3.34961000      -1.55145000
Si       3.34961000       1.55498000      -5.53271000
Si      -3.75276000       3.34961000       1.55851000
Si       5.53624000       1.55498000      -3.34608000
Si      -5.53624000       1.55498000      -3.34608000
Si      -3.34961000      -1.55498000       5.53978000
Si       1.55498000       3.34961000      -3.74922000
Si      -3.75276000      -3.34961000       1.55851000
Al      -1.55498000      -3.34961000       3.75629000
Si       5.53624000      -1.55498000       3.35314000
Si       3.34961000       1.55498000       5.53978000
Si      -5.53624000       1.55498000       3.35314000
Si      -3.34961000      -1.55498000      -5.53271000
Si       1.55498000      -3.34961000       3.75629000
Si       3.75276000       3.34961000      -1.55145000
Si      -1.55498000       3.34961000      -3.74922000
Si      -3.34961000       1.55498000      -5.53271000
Si      -3.75276000      -3.34961000      -1.55145000
Si       5.53624000      -1.55498000      -3.34608000
Si      -5.53624000      -1.55498000      -3.34608000
Si       1.55498000      -3.34961000      -3.74922000
Si       3.34961000      -1.55498000       5.53978000
Si       3.75276000       3.34961000       1.55851000
Si      -1.55498000       3.34961000       3.75629000
O       -6.92774000       2.36126000       3.44232000
O        1.70546000       4.74111000      -4.54436000
O        2.36126000       3.43879000      -2.35773000
O       -3.44808000      -3.06909000       0.00353000
O       -4.54789000      -4.74111000       1.70899000
O       -2.36126000      -3.43879000       2.36480000
O        0.00000000      -3.06909000       3.45161000
O       -1.70546000      -4.74111000       4.55143000
O       -2.15133000      -2.15133000      -4.64097000
O       -4.74111000      -1.70546000       4.74464000
O       -4.64450000      -2.15133000       2.15486000
O       -2.36126000      -3.43879000      -2.35773000
O        4.54789000      -4.74111000      -1.70193000
O        4.64450000      -2.15133000      -2.14780000
O        2.36126000      -3.43879000      -2.35773000
O        4.74111000       1.70546000      -4.73757000
O       -5.84092000       0.00000000       3.07262000
O       -3.06909000       0.00000000       5.84445000
O       -4.74111000       1.70546000       4.74464000
O        3.44808000      -3.06909000       0.00353000
O       -2.15133000       2.15133000       4.64803000
O       -3.43879000       2.36126000       6.93127000
O        4.54789000      -4.74111000       1.70899000
O        4.64450000      -2.15133000       2.15486000
O       -6.92774000       2.36126000      -3.43526000
O       -2.15133000      -2.15133000       4.64803000
O        1.70546000      -4.74111000      -4.54436000
O        3.06909000       0.00000000      -5.83739000
O        4.74111000      -1.70546000      -4.73757000
O        2.15133000      -2.15133000      -4.64097000
O        3.43879000      -2.36126000      -6.92420000
O        0.00000000       3.06909000       3.45161000
O        1.70546000       4.74111000       4.55143000
O        2.15133000       2.15133000       4.64803000
O        2.36126000       3.43879000       2.36480000
O        0.00000000      -3.06909000      -3.44455000
O       -1.70546000      -4.74111000      -4.54436000
O        3.43879000      -2.36126000       6.93127000
O        4.54789000       4.74111000       1.70899000
O       -1.70546000       4.74111000       4.55143000
O        2.36126000      -3.43879000       2.36480000
O       -3.44808000       3.06909000       0.00353000
O       -4.54789000       4.74111000      -1.70193000
O       -4.64450000       2.15133000      -2.14780000
O       -2.36126000       3.43879000      -2.35773000
O        5.84092000       0.00000000       3.07262000
O        4.74111000       1.70546000       4.74464000
O        4.64450000       2.15133000       2.15486000
O        6.92774000       2.36126000       3.44232000
O       -6.92774000      -2.36126000       3.44232000
O        1.70546000      -4.74111000       4.55143000
O        2.15133000      -2.15133000       4.64803000
O        3.44808000       3.06909000       0.00353000
O       -3.06909000       0.00000000      -5.83739000
O       -4.74111000      -1.70546000      -4.73757000
O       -3.43879000      -2.36126000      -6.92420000
O        4.74111000      -1.70546000       4.74464000
O        6.92774000      -2.36126000       3.44232000
O        3.06909000       0.00000000       5.84445000
O        3.43879000       2.36126000       6.93127000
O       -3.43879000      -2.36126000       6.93127000
O        0.00000000       3.06909000      -3.44455000
O        2.15133000       2.15133000      -4.64097000
O        3.43879000       2.36126000      -6.92420000
O       -4.54789000       4.74111000       1.70899000
O       -4.64450000       2.15133000       2.15486000
O       -2.36126000       3.43879000       2.36480000
O        5.84092000       0.00000000      -3.06555000
O        4.64450000       2.15133000      -2.14780000
O        6.92774000       2.36126000      -3.43526000
O       -5.84092000       0.00000000      -3.06555000
O       -4.74111000       1.70546000      -4.73757000
O        4.54789000       4.74111000      -1.70193000
O       -1.70546000       4.74111000      -4.54436000
O       -2.15133000       2.15133000      -4.64097000
O       -3.43879000       2.36126000      -6.92420000
O       -4.54789000      -4.74111000      -1.70193000
O       -4.64450000      -2.15133000      -2.14780000
O        6.92774000      -2.36126000      -3.43526000
O       -6.92774000      -2.36126000      -3.43526000
H       -7.77437000       2.85184000       3.49658000
H        1.79707000       5.58826000      -5.02845000
H       -5.03198000      -5.58826000       1.80061000
H       -1.79708000      -5.58826000       5.03551000
H        5.03198000      -5.58826000      -1.79354000
H       -3.49305000       2.85184000       7.77790000
H        5.03198000      -5.58826000       1.80061000
H       -7.77437000       2.85184000      -3.48951000
H        1.79707000      -5.58826000      -5.02845000
H        3.49304000      -2.85184000      -7.77084000
H        1.79707000       5.58826000       5.03551000
H       -1.79708000      -5.58826000      -5.02845000
H        3.49304000      -2.85184000       7.77790000
H        5.03198000       5.58826000       1.80061000
H       -1.79708000       5.58826000       5.03551000
H       -5.03198000       5.58826000      -1.79354000
H        7.77437000       2.85184000       3.49658000
H       -7.77437000      -2.85184000       3.49658000
H        1.79707000      -5.58826000       5.03551000
H       -3.49305000      -2.85184000      -7.77084000
H        7.77437000      -2.85184000       3.49658000
H        3.49304000       2.85184000       7.77790000
H       -3.49305000      -2.85184000       7.77790000
H        3.49304000       2.85184000      -7.77084000
H       -5.03198000       5.58826000       1.80061000
H        7.77437000       2.85184000      -3.48951000
H        5.03198000       5.58826000      -1.79354000
H       -1.79708000       5.58826000      -5.02845000
H       -3.49305000       2.85184000      -7.77084000
H       -5.03198000      -5.58826000      -1.79354000
H        7.77437000      -2.85184000      -3.48951000
H       -7.77437000      -2.85184000      -3.48951000
