145
Properties=species:S:1:pos:R:3 pbc="F F F"
Ba      -0.01033400       0.03580500       0.00380700
Si      -3.34877000       1.55582000       5.53709000
Si       3.75360000      -3.34877000       1.55582000
Al      -3.75192000       3.35046000      -1.55413000
Si       5.53708000       1.55582000       3.35046000
Si      -5.53540000      -1.55413000       3.35046000
Si       3.35045000      -1.55413000      -5.53540000
Si       1.55582000       3.35046000       3.75360000
Si      -1.55414000      -3.34877000      -3.75191000
Si       3.75360000      -3.34877000      -1.55413000
Si       3.35045000       1.55582000      -5.53540000
Si      -3.75192000       3.35046000       1.55582000
Si       5.53708000       1.55582000      -3.34877000
Si      -5.53540000       1.55582000      -3.34877000
Si      -3.34877000      -1.55413000       5.53709000
Si       1.55582000       3.35046000      -3.75191000
Si      -3.75192000      -3.34877000       1.55582000
Si      -1.55414000      -3.34877000       3.75360000
Al       5.53708000      -1.55413000       3.35046000
Si       3.35045000       1.55582000       5.53709000
Si      -5.53540000       1.55582000       3.35046000
Si      -3.34877000      -1.55413000      -5.53540000
Si       1.55582000      -3.34877000       3.75360000
Si       3.75360000       3.35046000      -1.55413000
Si      -1.55414000       3.35046000      -3.75191000
Si      -3.34877000       1.55582000      -5.53540000
Si      -3.75192000      -3.34877000      -1.55413000
Si       5.53708000      -1.55413000      -3.34877000
Si      -5.53540000      -1.55413000      -3.34877000
Si       1.55582000      -3.34877000      -3.75191000
Si       3.35045000      -1.55413000       5.53709000
Si       3.75360000       3.35046000       1.55582000
Si      -1.55414000       3.35046000       3.75360000
O       -6.92690000       2.36211000       3.43963000
O        1.70630000       4.74195000      -4.54705000
O        2.36210000       3.43963000      -2.36042000
O       -3.44724000      -3.06824000       0.00084000
O       -4.54705000      -4.74026000       1.70630000
O       -2.36042000      -3.43794000       2.36211000
O        0.00084000      -3.06824000       3.44892000
O       -1.70462000      -4.74026000       4.54874000
O       -2.15049000      -2.15049000      -4.64366000
O       -4.74027000      -1.70462000       4.74195000
O       -4.64366000      -2.15049000       2.15218000
O       -2.36042000      -3.43794000      -2.36042000
O        4.54873000      -4.74026000      -1.70462000
O        4.64534000      -2.15049000      -2.15049000
O        2.36210000      -3.43794000      -2.36042000
O        4.74195000       1.70630000      -4.74026000
O       -5.84008000       0.00084000       3.06993000
O       -3.06825000       0.00084000       5.84177000
O       -4.74027000       1.70630000       4.74195000
O        3.44892000      -3.06824000       0.00084000
O       -2.15049000       2.15218000       4.64534000
O       -3.43795000       2.36211000       6.92858000
O        4.54873000      -4.74026000       1.70630000
O        4.64534000      -2.15049000       2.15218000
O       -6.92690000       2.36211000      -3.43794000
O       -2.15049000      -2.15049000       4.64534000
O        1.70630000      -4.74026000      -4.54705000
O        3.06993000       0.00084000      -5.84008000
O        4.74195000      -1.70462000      -4.74026000
O        2.15217000      -2.15049000      -4.64366000
O        3.43963000      -2.36042000      -6.92689000
O        0.00084000       3.06993000       3.44892000
O        1.70630000       4.74195000       4.54874000
O        2.15217000       2.15218000       4.64534000
O        2.36210000       3.43963000       2.36211000
O        0.00084000      -3.06824000      -3.44723000
O       -1.70462000      -4.74026000      -4.54705000
O        3.43963000      -2.36042000       6.92858000
O        4.54873000       4.74195000       1.70630000
O       -1.70462000       4.74195000       4.54874000
O        2.36210000      -3.43794000       2.36211000
O       -3.44724000       3.06993000       0.00084000
O       -4.54705000       4.74195000      -1.70462000
O       -4.64366000       2.15218000      -2.15049000
O       -2.36042000       3.43963000      -2.36042000
O        5.84176000       0.00084000       3.06993000
O        4.74195000       1.70630000       4.74195000
O        4.64534000       2.15218000       2.15218000
O        6.92858000       2.36211000       3.43963000
O       -6.92690000      -2.36042000       3.43963000
O        1.70630000      -4.74026000       4.54874000
O        2.15217000      -2.15049000       4.64534000
O        3.44892000       3.06993000       0.00084000
O       -3.06825000       0.00084000      -5.84008000
O       -4.74027000      -1.70462000      -4.74026000
O       -3.43795000      -2.36042000      -6.92689000
O        4.74195000      -1.70462000       4.74195000
O        6.92858000      -2.36042000       3.43963000
O        3.06993000       0.00084000       5.84177000
O        3.43963000       2.36211000       6.92858000
O       -3.43795000      -2.36042000       6.92858000
O        0.00084000       3.06993000      -3.44723000
O        2.15217000       2.15218000      -4.64366000
O        3.43963000       2.36211000      -6.92689000
O       -4.54705000       4.74195000       1.70630000
O       -4.64366000       2.15218000       2.15218000
O       -2.36042000       3.43963000       2.36211000
O        5.84176000       0.00084000      -3.06824000
O        4.64534000       2.15218000      -2.15049000
O        6.92858000       2.36211000      -3.43794000
O       -5.84008000       0.00084000      -3.06824000
O       -4.74027000       1.70630000      -4.74026000
O        4.54873000       4.74195000      -1.70462000
O       -1.70462000       4.74195000      -4.54705000
O       -2.15049000       2.15218000      -4.64366000
O       -3.43795000       2.36211000      -6.92689000
O       -4.54705000      -4.74026000      -1.70462000
O       -4.64366000      -2.15049000      -2.15049000
O        6.92858000      -2.36042000      -3.43794000
O       -6.92690000      -2.36042000      -3.43794000
H       -7.77353000       2.85268000       3.49389000
H        1.79791000       5.58910000      -5.03114000
H       -5.03114000      -5.58741000       1.79792000
H       -1.79624000      -5.58741000       5.03283000
H        5.03282000      -5.58741000      -1.79623000
H       -3.49221000       2.85268000       7.77522000
H        5.03282000      -5.58741000       1.79792000
H       -7.77353000       2.85268000      -3.49220000
H        1.79791000      -5.58741000      -5.03114000
H        3.49388000      -2.85099000      -7.77353000
H        1.79791000       5.58910000       5.03283000
H       -1.79624000      -5.58741000      -5.03114000
H        3.49388000      -2.85099000       7.77522000
H        5.03282000       5.58910000       1.79792000
H       -1.79624000       5.58910000       5.03283000
H       -5.03114000       5.58910000      -1.79623000
H        7.77521000       2.85268000       3.49389000
H       -7.77353000      -2.85099000       3.49389000
H        1.79791000      -5.58741000       5.03283000
H       -3.49221000      -2.85099000      -7.77353000
H        7.77521000      -2.85099000       3.49389000
H        3.49388000       2.85268000       7.77522000
H       -3.49221000      -2.85099000       7.77522000
H        3.49388000       2.85268000      -7.77353000
H       -5.03114000       5.58910000       1.79792000
H        7.77521000       2.85268000      -3.49220000
H        5.03282000       5.58910000      -1.79623000
H       -1.79624000       5.58910000      -5.03114000
H       -3.49221000       2.85268000      -7.77353000
H       -5.03114000      -5.58741000      -1.79623000
H        7.77521000      -2.85099000      -3.49220000
H       -7.77353000      -2.85099000      -3.49220000
