55
Properties=species:S:1:pos:R:3 pbc="F F F"
Sr      -0.02715900      -0.48077100      -0.52454200
Si       0.57120900       0.30283800       3.43127800
Al       0.57061800      -0.31321800      -3.43996900
Si      -2.88061500      -1.53872400       0.23769800
Si      -0.46289300       2.27210900      -2.15744000
Si      -1.19754400      -2.62993200      -2.15741100
Si      -1.19754200       2.62106900       2.14851700
Si      -0.46287000      -2.28091100       2.14850200
Si      -2.88064900       1.52992700      -0.24654200
Si       2.76625500      -0.95344900      -1.24498200
Al       1.22015800      -3.37204200      -0.24656100
Si       1.22019200       3.36329500       0.23766800
Si       2.76627600       0.94451200       1.23612000
O       -1.74542200       3.66029900       3.27704000
O       -2.42818800       2.18871400       1.17208900
O       -0.03745500      -3.35643000      -1.27900300
O       -0.59362700       1.29658400       2.87287600
O        0.85860700       0.63405600       4.99763800
O       -0.59363300      -1.30543800      -2.88174600
O        0.08499200      -1.24168500       3.27704100
O        1.93616300       0.52801800       2.57275100
O        0.85907200      -0.64169800      -5.00669100
O        0.08500000       1.23282800      -3.28592100
O        1.93616000      -0.53682300      -2.58160800
O       -4.10918600      -2.40350000       0.86793000
O       -2.42818900      -2.19759700      -1.18096700
O       -1.62300500      -1.55441100       1.27014000
O       -3.36623000      -0.00444500      -0.00445100
O       -1.06680200       3.59657000      -2.88172500
O        0.76776600       2.70439400      -1.18096100
O       -1.62299600       1.54561400      -1.27901000
O       -1.74542100      -3.66917000      -3.28592000
O       -0.03744400       3.34755000       1.27013700
O       -1.06680200      -3.60545000       2.87284800
O        0.76777000      -2.71328800       1.17209300
O       -4.10918900       2.39459900      -0.87683100
O        2.30970700      -0.00437700      -0.00447700
O        4.35804000      -0.76719200      -1.52112100
O        2.44875700      -2.50740100      -0.87683100
O        1.70580900      -4.90644200      -0.00444000
O        2.44876100       2.49852200       0.86795000
O        1.70581000       4.89756000      -0.00443900
O        4.35804000       0.75831500       1.51224000
H       -2.07502000       4.28548000       3.95594000
H        1.03293000       0.83054700       5.94178500
H        1.03289400      -0.83958200      -5.95063900
H       -4.84819000      -2.92361000       1.24708000
H       -1.43078800       4.39489000      -3.31830300
H       -2.07502000      -4.29436000      -3.96482000
H       -1.43078900      -4.40377000       3.30942000
H       -4.84819000       2.91473000      -1.25595000
H        5.31726000      -0.65494000      -1.68752000
H        1.99823100      -5.83036000       0.14135000
H        1.99823000       5.82148000      -0.15023000
H        5.31726000       0.64605700       1.67863900
