55
Properties=species:S:1:pos:R:3 pbc="F F F"
Ba      -0.23806200      -0.23250700       0.01646100
Si       0.56464000       0.30446000       3.43829100
Si       0.56464000      -0.31319000      -3.43280000
Al      -2.88659300      -1.53869000       0.24486900
Si      -0.46886200       2.27212600      -2.15023700
Si      -1.20352000      -2.62987000      -2.15023000
Si      -1.20352000       2.62115000       2.15571000
Al      -0.46887400      -2.28084800       2.15573000
Si      -2.88658000       1.52996200      -0.23937000
Si       2.76031000      -0.95339800      -1.23781300
Si       1.21421000      -3.37203900      -0.23937100
Si       1.21421000       3.36331000       0.24485000
Si       2.76031000       0.94466400       1.24329600
O       -1.75140000       3.66037000       3.28422000
O       -2.43417100       2.18879000       1.17926900
O       -0.04342000      -3.35634900      -1.27183000
O       -0.59960000       1.29663000       2.88004000
O        0.85311000       0.63290000       5.00499000
O       -0.59960100      -1.30535000      -2.87455000
O        0.07902100      -1.24163000       3.28422000
O        1.93019000       0.52798800       2.57990100
O        0.85311000      -0.64162000      -4.99951000
O        0.07902100       1.23290100      -3.27872900
O        1.93019000      -0.53671800      -2.57442100
O       -4.11516000      -2.40339900       0.87513100
O       -2.43417000      -2.19751900      -1.17379000
O       -1.62892300      -1.55438900       1.27727900
O       -3.37221100      -0.00436100       0.00273800
O       -1.07277000       3.59665000      -2.87455000
O        0.76179000       2.70448000      -1.17378900
O       -1.62894700       1.54565600      -1.27181900
O       -1.75140000      -3.66910000      -3.27873000
O       -0.04342000       3.34762000       1.27732000
O       -1.07277000      -3.60536900       2.88004000
O        0.76179000      -2.71320900       1.17926900
O       -4.11516000       2.39467900      -0.86965100
O        2.30374000      -0.00435500       0.00274000
O        4.35206000      -0.76711000      -1.51394100
O        2.44279000      -2.50731900      -0.86965200
O        1.69983000      -4.90636000       0.00274000
O        2.44279000       2.49859900       0.87513100
O        1.69983000       4.89764000       0.00274000
O        4.35206000       0.75838800       1.51942100
H       -2.08099000       4.28556000       3.96312000
H        1.02691000       0.83078000       5.94894000
H        1.02691000      -0.83951000      -5.94345000
H       -4.85417000      -2.92354000       1.25426000
H       -1.43677000       4.39497000      -3.31112000
H       -2.08099000      -4.29429000      -3.95763000
H       -1.43677000      -4.40369000       3.31661000
H       -4.85417000       2.91481000      -1.24877000
H        5.31129000      -0.65486000      -1.68034000
H        1.99225000      -5.83029000       0.14853000
H        1.99225000       5.82156000      -0.14305000
H        5.31129000       0.64613100       1.68582000
