55
Properties=species:S:1:pos:R:3 pbc="F F F"
Sr      -0.49850200      -0.12388300       0.30377700
Si       1.53443000       0.46318000      -3.07535000
Al      -3.10618000      -1.20977000      -0.96114000
Si       1.53716000       2.88372000      -1.11837000
Al      -1.54563000      -0.46722000       3.08045000
Si       3.09497000       1.20573000       0.96625000
Si       3.09497000      -1.20977000      -0.96114000
Si      -1.54563000       0.46318000      -3.07535000
Si       1.53716000      -2.88776000       1.12347000
Si      -3.10618000       1.20573000       0.96625000
Si       1.53443000      -0.46722000       3.08045000
Si      -1.54837000       2.88372000      -1.11837000
Si      -1.54837000      -2.88776000       1.12347000
O        3.54495000      -0.00202000       0.00255000
O        1.99808000      -2.11747000      -0.21201000
O        4.37924000       2.10587000       1.33249000
O       -0.00560000       0.00302000      -2.98286000
O        1.97620000       0.55017000      -4.62170000
O       -2.47293000      -0.61094000      -2.31512000
O        1.70676000       1.90794000      -2.38911000
O        2.46173000      -0.61094000      -2.31512000
O       -2.00928000      -2.11747000      -0.21201000
O       -4.39045000      -2.10991000      -1.32738000
O       -3.55615000      -0.00202000       0.00255000
O        1.99808000       2.11344000       0.21712000
O       -0.00560000       3.32119000      -0.98149000
O        2.44805000       4.19359000      -1.32738000
O       -0.00560000      -0.00706000       2.98797000
O       -1.98740000      -0.55421000       4.62680000
O       -1.71796000      -1.91198000       2.39421000
O       -2.47293000       0.60690000       2.32023000
O        2.46173000       0.60690000       2.32023000
O        4.37924000      -2.10991000      -1.32738000
O       -1.98740000       0.55017000      -4.62170000
O       -1.71796000       1.90794000      -2.38911000
O        1.70676000      -1.91198000       2.39421000
O       -0.00560000      -3.32522000       0.98659000
O        2.44805000      -4.19763000       1.33249000
O       -2.00928000       2.11344000       0.21712000
O       -4.39045000       2.10587000       1.33249000
O        1.97620000      -0.55421000       4.62680000
O       -2.45926000       4.19359000      -1.32738000
O       -2.45926000      -4.19763000       1.33249000
H        5.16073000       2.65361000       1.55535000
H        2.24500000       0.60310000      -5.56262000
H       -5.17193000      -2.65765000      -1.55024000
H        3.00282000       4.99135000      -1.45468000
H       -2.25621000      -0.60714000       5.56773000
H        5.16073000      -2.65765000      -1.55024000
H       -2.25621000       0.60310000      -5.56262000
H        3.00282000      -4.99539000       1.45979000
H       -5.17193000       2.65361000       1.55535000
H        2.24500000      -0.60714000       5.56773000
H       -3.01402000       4.99135000      -1.45468000
H       -3.01402000      -4.99539000       1.45979000
