55
Properties=species:S:1:pos:R:3 pbc="F F F"
Sr      -0.07016700      -0.69928200      -0.45988500
Si       0.56795200       0.30151400       3.43276700
Si       0.56849300      -0.31606100      -3.43845300
Si      -2.88272200      -1.54155700       0.23921400
Si      -0.46501300       2.26925500      -2.15585800
Al      -1.19965700      -2.63275100      -2.15587100
Si      -1.19967000       2.61828300       2.15008400
Si      -0.46501600      -2.28371100       2.15007400
Si      -2.88273000       1.52708400      -0.24500400
Si       2.76416700      -0.95626300      -1.24345400
Al       1.21805900      -3.37491100      -0.24500600
Si       1.21805400       3.36044400       0.23922200
Si       2.76416300       0.94179300       1.23767300
O       -1.74755000       3.65750000       3.27858000
O       -2.43033000       2.18591900       1.17364100
O       -0.03958600      -3.35922000      -1.27745300
O       -0.59575600       1.29375500       2.87439100
O        0.85732500       0.63008100       4.99928000
O       -0.59575800      -1.30822500      -2.88017600
O        0.08286400      -1.24450100       3.27858000
O        1.93403300       0.52512200       2.57426900
O        0.85694900      -0.64449000      -5.00514000
O        0.08285700       1.23002900      -3.28437000
O        1.93403100      -0.53959000      -2.58005100
O       -4.11132200      -2.40626700       0.86950100
O       -2.43033000      -2.20038900      -1.17942000
O       -1.62509400      -1.55724700       1.27167100
O       -3.36835900      -0.00723000      -0.00288900
O       -1.06893300       3.59376700      -2.88019300
O        0.76563200       2.70161500      -1.17942300
O       -1.62509700       1.54277900      -1.27745600
O       -1.74755000      -3.67197000      -3.28437000
O       -0.03958100       3.34474900       1.27167800
O       -1.06893000      -3.60824000       2.87440000
O        0.76563100      -2.71608500       1.17364300
O       -4.11132000       2.39180000      -0.87528000
O        2.30759700      -0.00722400      -0.00289300
O        4.35590000      -0.76999000      -1.51957000
O        2.44663000      -2.51020100      -0.87528000
O        1.70367000      -4.90923000      -0.00288900
O        2.44662900       2.49573100       0.86950200
O        1.70367000       4.89477000      -0.00289000
O        4.35590000       0.75552000       1.51379000
H       -2.07715000       4.28269000       3.95748000
H        1.03074800       0.82791200       5.94331000
H        1.03075000      -0.84238000      -5.94909000
H       -4.85032000      -2.92641000       1.24862000
H       -1.43292000       4.39210000      -3.31675000
H       -2.07715000      -4.29716000      -3.96327000
H       -1.43292000      -4.40656000       3.31097000
H       -4.85032000       2.91194000      -1.25441000
H        5.31513000      -0.65773000      -1.68597000
H        1.99610000      -5.83316000       0.14290000
H        1.99610000       5.81869000      -0.14868000
H        5.31513000       0.64326000       1.68019000
