55
Properties=species:S:1:pos:R:3 pbc="F F F"
Sr      -0.25923600      -0.31572000      -0.00754000
Si       0.56442000       0.30423000       3.43844000
Si       0.56442000      -0.31343000      -3.43265000
Al      -2.88681000      -1.53893000       0.24500000
Si      -0.46908000       2.27189000      -2.15008000
Si      -1.20374000      -2.63011000      -2.15008000
Si      -1.20374000       2.62091000       2.15586000
Al      -0.46908000      -2.28109000       2.15586000
Si      -2.88681000       1.52973000      -0.23922000
Si       2.76009000      -0.95363000      -1.23767000
Si       1.21399000      -3.37227000      -0.23922000
Si       1.21399000       3.36307000       0.24500000
Si       2.76009000       0.94443000       1.24345000
O       -1.75162000       3.66013000       3.28437000
O       -2.43439000       2.18855000       1.17942000
O       -0.04364000      -3.35659000      -1.27168000
O       -0.59983000       1.29639000       2.88019000
O        0.85288000       0.63266000       5.00514000
O       -0.59983000      -1.30559000      -2.87440000
O        0.07880000      -1.24187000       3.28437000
O        1.92997000       0.52776000       2.58005000
O        0.85288000      -0.64186000      -4.99936000
O        0.07880000       1.23266000      -3.27858000
O        1.92997000      -0.53696000      -2.57427000
O       -4.11538000      -2.40364000       0.87528000
O       -2.43439000      -2.19776000      -1.17364000
O       -1.62917000      -1.55461000       1.27746000
O       -3.37243000      -0.00460000       0.00289000
O       -1.07299000       3.59641000      -2.87440000
O        0.76157000       2.70424000      -1.17364000
O       -1.62917000       1.54541000      -1.27168000
O       -1.75162000      -3.66934000      -3.27858000
O       -0.04364000       3.34739000       1.27746000
O       -1.07299000      -3.60561000       2.88019000
O        0.76157000      -2.71345000       1.17942000
O       -4.11538000       2.39444000      -0.86950000
O        2.30352000      -0.00460000       0.00289000
O        4.35184000      -0.76735000      -1.51379000
O        2.44256000      -2.50756000      -0.86950000
O        1.69961000      -4.90660000       0.00289000
O        2.44256000       2.49836000       0.87528000
O        1.69961000       4.89740000       0.00289000
O        4.35184000       0.75815000       1.51957000
H       -2.08122000       4.28532000       3.96327000
H        1.02669000       0.83054000       5.94909000
H        1.02669000      -0.83974000      -5.94331000
H       -4.85439000      -2.92377000       1.25441000
H       -1.43699000       4.39473000      -3.31097000
H       -2.08122000      -4.29452000      -3.95748000
H       -1.43699000      -4.40393000       3.31675000
H       -4.85439000       2.91457000      -1.24862000
H        5.31106000      -0.65510000      -1.68019000
H        1.99203000      -5.83052000       0.14868000
H        1.99203000       5.82132000      -0.14290000
H        5.31106000       0.64590000       1.68597000
