55
Properties=species:S:1:pos:R:3 pbc="F F F"
Sr      -0.35756000      -0.50099100      -0.46136600
Si       0.56348100       0.30329000       3.43336100
Si       0.56352700      -0.31381000      -3.43784700
Al      -2.88769600      -1.53935200       0.23981100
Si      -0.46997200       2.27149600      -2.15525500
Al      -1.20462500      -2.63052400      -2.15525500
Si      -1.20462100       2.62049200       2.15066200
Si      -0.46998300      -2.28150500       2.15066800
Si      -2.88769300       1.52930400      -0.24442900
Si       2.75920100      -0.95404800      -1.24285300
Si       1.21309200      -3.37269500      -0.24441400
Si       1.21310700       3.36266500       0.23979900
Si       2.75920600       0.94401200       1.23825800
O       -1.75250000       3.65971000       3.27917000
O       -2.43528100       2.18813000       1.17422100
O       -0.04452200      -3.35700800      -1.27688900
O       -0.60070700       1.29597300       2.87498400
O        0.85202200       0.63263100       4.99985400
O       -0.60071100      -1.30601200      -2.87960900
O        0.07791700      -1.24228500       3.27916800
O        1.92908100       0.52733900       2.57484700
O        0.85200200      -0.64228300      -5.00456000
O        0.07790400       1.23223500      -3.28378500
O        1.92908200      -0.53739100      -2.57947600
O       -4.11627000      -2.40405700       0.87009100
O       -2.43527800      -2.19817400      -1.17884400
O       -1.63003600      -1.55502200       1.27223800
O       -3.37331000      -0.00501800      -0.00230700
O       -1.07386500       3.59598100      -2.87962800
O        0.76067800       2.70381600      -1.17884100
O       -1.63005600       1.54500100      -1.27687800
O       -1.75249800      -3.66976000      -3.28378000
O       -0.04453000       3.34696900       1.27227000
O       -1.07388000      -3.60602800       2.87499000
O        0.76068100      -2.71386500       1.17421600
O       -4.11627200       2.39402100      -0.87469500
O        2.30263300      -0.00499900      -0.00232400
O        4.35095000      -0.76776900      -1.51899000
O        2.44168000      -2.50797900      -0.87470100
O        1.69872100      -4.90701900      -0.00231100
O        2.44168000       2.49793900       0.87009100
O        1.69872000       4.89698000      -0.00230900
O        4.35095000       0.75772800       1.51437900
H       -2.08210000       4.28490000       3.95807000
H        1.02580300       0.83010100       5.94389300
H        1.02579900      -0.84015900      -5.94850000
H       -4.85527000      -2.92419100       1.24920900
H       -1.43788000       4.39431200      -3.31615700
H       -2.08210100      -4.29494000      -3.96268000
H       -1.43787000      -4.40435000       3.31156000
H       -4.85526900       2.91414900      -1.25382300
H        5.31018000      -0.65552100      -1.68539000
H        1.99114900      -5.83094000       0.14348100
H        1.99115000       5.82090000      -0.14810000
H        5.31018000       0.64548100       1.68077000
