55
Properties=species:S:1:pos:R:3 pbc="F F F"
Ba      -0.32515100      -0.00002200      -0.00001600
Si       0.56187000       0.30883000       3.43555000
Si       0.56187000      -0.30883000      -3.43554000
Al      -2.88935000      -1.53433000       0.24211000
Si      -0.47163000       2.27649000      -2.15297000
Si      -1.20628000      -2.62551000      -2.15297000
Si      -1.20628000       2.62551000       2.15297000
Si      -0.47163000      -2.27649000       2.15297000
Al      -2.88935000       1.53433000      -0.24211000
Si       2.75754000      -0.94903000      -1.24056000
Si       1.21144000      -3.36767000      -0.24211000
Si       1.21144000       3.36767000       0.24211000
Si       2.75754000       0.94903000       1.24056000
O       -1.75416000       3.66474000       3.28148000
O       -2.43694000       2.19316000       1.17653000
O       -0.04619000      -3.35199000      -1.27457000
O       -0.60237000       1.30099000       2.87729000
O        0.85034000       0.63726000       5.00225000
O       -0.60237000      -1.30099000      -2.87729000
O        0.07625000      -1.23726000       3.28148000
O        1.92742000       0.53236000       2.57716000
O        0.85034000      -0.63726000      -5.00225000
O        0.07625000       1.23727000      -3.28148000
O        1.92742000      -0.53236000      -2.57716000
O       -4.11793000      -2.39904000       0.87239000
O       -2.43694000      -2.19315000      -1.17653000
O       -1.63172000      -1.55001000       1.27457000
O       -3.37497000       0.00000000       0.00000000
O       -1.07554000       3.60101000      -2.87729000
O        0.75902000       2.70885000      -1.17653000
O       -1.63172000       1.55001000      -1.27457000
O       -1.75416000      -3.66473000      -3.28148000
O       -0.04619000       3.35199000       1.27457000
O       -1.07554000      -3.60101000       2.87729000
O        0.75902000      -2.70884000       1.17653000
O       -4.11793000       2.39904000      -0.87239000
O        2.30097000       0.00000000       0.00000000
O        4.34929000      -0.76275000      -1.51668000
O        2.44002000      -2.50296000      -0.87239000
O        1.69706000      -4.90200000       0.00000000
O        2.44002000       2.50296000       0.87239000
O        1.69706000       4.90200000       0.00000000
O        4.34929000       0.76275000       1.51668000
H       -2.08376000       4.28992000       3.96038000
H        1.02414000       0.83514000       5.94620000
H        1.02414000      -0.83514000      -5.94620000
H       -4.85693000      -2.91917000       1.25152000
H       -1.43953000       4.39933000      -3.31386000
H       -2.08376000      -4.28992000      -3.96038000
H       -1.43953000      -4.39933000       3.31386000
H       -4.85693000       2.91917000      -1.25151000
H        5.30852000      -0.65050000      -1.68308000
H        1.98949000      -5.82592000       0.14579000
H        1.98949000       5.82592000      -0.14579000
H        5.30852000       0.65050000       1.68308000
