109
Properties=species:S:1:pos:R:3 pbc="F F F"
Ba      -0.00593300       0.00466500      -0.03030000
Si      -2.16845000       0.00050000       4.06268000
Si      -1.50157000       3.75561000      -2.93310000
Si       2.30689000       4.56192000      -0.09813000
Si      -4.56192000      -2.30689000      -0.09813000
Si      -4.50857000       0.00049900       1.96652000
Al       1.50058000      -3.75462000      -2.93310000
Si      -2.30788000      -4.56093000      -0.09813000
Si      -0.00050000       2.16845000       4.06268000
Si       1.50058000       3.75561000      -2.93310000
Al      -2.30788000       4.56192000      -0.09813000
Si      -0.00050000       4.50857000       1.96652000
Si      -0.00050000      -2.16745000       4.06268000
Si       3.75462000       1.50157000      -2.93310000
Si      -1.50157000      -3.75462000      -2.93310000
Si       2.30689000      -4.56093000      -0.09813000
Si      -0.00050000      -4.50758000       1.96652000
Si      -3.75561000      -1.50058000      -2.93310000
Si      -4.56192000       2.30788000      -0.09813000
Si      -3.75561000       1.50157000      -2.93310000
Si       4.56093000      -2.30689000      -0.09813000
Si       2.16745000       0.00050000       4.06268000
Si       3.75462000      -1.50058000      -2.93310000
Si       4.56093000       2.30788000      -0.09813000
Si       4.50758000       0.00050000       1.96652000
O       -4.75350000       1.90533000      -4.13008000
O        4.51243000      -1.54908000      -1.51562000
O        4.15717000      -1.30900000       1.09885000
O        6.06200000      -2.83554000       0.15673000
O        3.57274000       0.00050000       3.27805000
O        2.47179000       0.00050000       5.64338000
O        4.75250000      -1.90434000      -4.13008000
O       -1.31000000       4.15816000       1.09885000
O       -6.06300000       0.00050100       2.38461000
O        1.54908000      -4.51243000      -1.51562000
O       -4.15816000       1.31000000       1.09885000
O       -3.57373000       0.00050000       3.27805000
O       -2.47278000       0.00050000       5.64338000
O       -1.55007000       4.51342000      -1.51562000
O       -1.31485000      -1.31385000       3.69041000
O       -1.31485000       1.31485000       3.69041000
O       -1.90533000       4.75350000      -4.13008000
O       -0.00050000       3.22696000      -3.18796000
O       -4.75350000      -1.90434000      -4.13008000
O       -3.22696000       0.00050000      -3.18796000
O        4.15717000       1.31000000       1.09885000
O        6.06200000       2.83653000       0.15673000
O        6.06200000       0.00050000       2.38461000
O       -2.83653000       6.06300000       0.15673000
O       -3.57252000       3.57252000      -0.12391000
O       -0.00050000       6.06300000       2.38461000
O       -0.00050000      -3.57274000       3.27805000
O       -0.00050000      -2.47179000       5.64338000
O       -2.49097000       2.49097000      -2.90733000
O        1.54908000       4.51342000      -1.51562000
O        1.30900000       4.15816000       1.09885000
O        2.83554000       6.06300000       0.15673000
O        3.57153000       3.57252000      -0.12391000
O       -4.51342000      -1.54908000      -1.51562000
O       -4.15816000      -1.30900000       1.09885000
O       -6.06300000      -2.83554000       0.15673000
O       -3.57252000      -3.57153000      -0.12391000
O        1.90434000      -4.75250000      -4.13008000
O       -4.51342000       1.55007000      -1.51562000
O       -6.06300000       2.83653000       0.15673000
O        1.31385000      -1.31385000       3.69041000
O        4.51243000       1.55007000      -1.51562000
O        4.75250000       1.90533000      -4.13008000
O        3.22597000       0.00050000      -3.18796000
O       -1.90533000      -4.75250000      -4.13008000
O       -2.49097000      -2.48998000      -2.90733000
O        1.30900000      -4.15717000       1.09885000
O        2.83554000      -6.06200000       0.15673000
O        3.57153000      -3.57153000      -0.12391000
O       -0.00050000      -6.06200000       2.38461000
O       -0.00050000      -3.22597000      -3.18796000
O        2.48998000      -2.48998000      -2.90733000
O       -1.55007000      -4.51243000      -1.51562000
O       -1.31000000      -4.15717000       1.09885000
O       -2.83653000      -6.06200000       0.15673000
O       -0.00050000       3.57373000       3.27805000
O       -0.00050000       2.47278000       5.64338000
O        1.31385000       1.31485000       3.69041000
O        1.90434000       4.75350000      -4.13008000
O        2.48998000       2.49097000      -2.90733000
H       -5.36097000       2.15113000      -4.85876000
H        6.97472000      -3.15698000       0.31169000
H        2.65707000       0.00050000       6.60571000
H        5.35997000      -2.15013000      -4.85876000
H       -7.00936000       0.00050000       2.63915000
H       -2.65806000       0.00050000       6.60571000
H       -2.15113000       5.36097000      -4.85876000
H       -5.36097000      -2.15013000      -4.85876000
H        6.97472000       3.15798000       0.31169000
H        7.00837000       0.00050000       2.63915000
H       -3.15798000       6.97572000       0.31169000
H       -0.00050000       7.00936000       2.63915000
H       -0.00050000      -2.65707000       6.60571000
H        3.15698000       6.97572000       0.31169000
H       -6.97572000      -3.15698000       0.31169000
H        2.15013000      -5.35997000      -4.85876000
H       -6.97572000       3.15798000       0.31169000
H        5.35997000       2.15113000      -4.85876000
H       -2.15113000      -5.35997000      -4.85876000
H        3.15698000      -6.97472000       0.31169000
H       -0.00050000      -7.00837000       2.63915000
H       -3.15798000      -6.97472000       0.31169000
H       -0.00050000       2.65806000       6.60571000
H        2.15013000       5.36097000      -4.85876000
