55
Properties=species:S:1:pos:R:3 pbc="F F F"
Rb       0.06966000      -0.02944100      -0.17496700
Al       1.54189000       0.46576000      -3.08162000
Si      -3.09871000      -1.20719000      -0.96741000
Si       1.54463000       2.88630000      -1.12464000
Si      -1.53817000      -0.46464000       3.07418000
Si       3.10244000       1.20831000       0.95997000
Si       3.10244000      -1.20719000      -0.96741000
Si      -1.53817000       0.46576000      -3.08162000
Si       1.54463000      -2.88518000       1.11720000
Si      -3.09871000       1.20831000       0.95997000
Si       1.54189000      -0.46464000       3.07418000
Si      -1.54090000       2.88630000      -1.12464000
Si      -1.54090000      -2.88518000       1.11720000
O        3.55241000       0.00056000      -0.00372000
O        2.00554000      -2.11489000      -0.21828000
O        4.38671000       2.10845000       1.32621000
O        0.00186000       0.00561000      -2.98914000
O        1.98366000       0.55275000      -4.62797000
O       -2.46547000      -0.60836000      -2.32139000
O        1.71422000       1.91052000      -2.39538000
O        2.46919000      -0.60836000      -2.32139000
O       -2.00182000      -2.11489000      -0.21828000
O       -4.38298000      -2.10733000      -1.33365000
O       -3.54869000       0.00056000      -0.00372000
O        2.00554000       2.11602000       0.21085000
O        0.00186000       3.32377000      -0.98776000
O        2.45552000       4.19617000      -1.33365000
O        0.00186000      -0.00448000       2.98170000
O       -1.97994000      -0.55162000       4.62053000
O       -1.71050000      -1.90940000       2.38794000
O       -2.46547000       0.60948000       2.31395000
O        2.46919000       0.60948000       2.31395000
O        4.38671000      -2.10733000      -1.33365000
O       -1.97994000       0.55275000      -4.62797000
O       -1.71050000       1.91052000      -2.39538000
O        1.71422000      -1.90940000       2.38794000
O        0.00186000      -3.32264000       0.98032000
O        2.45552000      -4.19505000       1.32621000
O       -2.00182000       2.11602000       0.21085000
O       -4.38298000       2.10845000       1.32621000
O        1.98366000      -0.55162000       4.62053000
O       -2.45179000       4.19617000      -1.33365000
O       -2.45179000      -4.19505000       1.32621000
H        5.16819000       2.65619000       1.54907000
H        2.25247000       0.60568000      -5.56890000
H       -5.16447000      -2.65507000      -1.55651000
H        3.01028000       4.99394000      -1.46095000
H       -2.24874000      -0.60455000       5.56146000
H        5.16819000      -2.65507000      -1.55651000
H       -2.24874000       0.60568000      -5.56890000
H        3.01028000      -4.99281000       1.45351000
H       -5.16447000       2.65619000       1.54907000
H        2.25247000      -0.60455000       5.56146000
H       -3.00656000       4.99394000      -1.46095000
H       -3.00656000      -4.99281000       1.45351000
