145
Properties=species:S:1:pos:R:3 pbc="F F F"
Ba      -0.04039100       0.02060300       0.00999700
Si      -3.35296000       1.55582000       5.53812000
Si       3.74941000      -3.34877000       1.55685000
Al      -3.75610000       3.35046000      -1.55311000
Si       5.53290000       1.55582000       3.35149000
Si      -5.53959000      -1.55413000       3.35149000
Si       3.34627000      -1.55413000      -5.53437000
Si       1.55164000       3.35046000       3.75463000
Si      -1.55832000      -3.34877000      -3.75088000
Si       3.74941000      -3.34877000      -1.55311000
Si       3.34627000       1.55582000      -5.53437000
Si      -3.75610000       3.35046000       1.55685000
Si       5.53290000       1.55582000      -3.34774000
Si      -5.53959000       1.55582000      -3.34774000
Al      -3.35296000      -1.55413000       5.53812000
Si       1.55164000       3.35046000      -3.75088000
Si      -3.75610000      -3.34877000       1.55685000
Si      -1.55832000      -3.34877000       3.75463000
Si       5.53290000      -1.55413000       3.35149000
Si       3.34627000       1.55582000       5.53812000
Si      -5.53959000       1.55582000       3.35149000
Si      -3.35296000      -1.55413000      -5.53437000
Si       1.55164000      -3.34877000       3.75463000
Si       3.74941000       3.35046000      -1.55311000
Si      -1.55832000       3.35046000      -3.75088000
Si      -3.35296000       1.55582000      -5.53437000
Si      -3.75610000      -3.34877000      -1.55311000
Si       5.53290000      -1.55413000      -3.34774000
Si      -5.53959000      -1.55413000      -3.34774000
Si       1.55164000      -3.34877000      -3.75088000
Si       3.34627000      -1.55413000       5.53812000
Si       3.74941000       3.35046000       1.55685000
Si      -1.55832000       3.35046000       3.75463000
O       -6.93108000       2.36211000       3.44066000
O        1.70212000       4.74195000      -4.54602000
O        2.35792000       3.43963000      -2.35939000
O       -3.45142000      -3.06824000       0.00187000
O       -4.55124000      -4.74026000       1.70733000
O       -2.36461000      -3.43794000       2.36314000
O       -0.00334000      -3.06824000       3.44995000
O       -1.70880000      -4.74026000       4.54977000
O       -2.15467000      -2.15049000      -4.64263000
O       -4.74445000      -1.70462000       4.74298000
O       -4.64784000      -2.15049000       2.15321000
O       -2.36461000      -3.43794000      -2.35939000
O        4.54455000      -4.74026000      -1.70359000
O        4.64116000      -2.15049000      -2.14946000
O        2.35792000      -3.43794000      -2.35939000
O        4.73776000       1.70630000      -4.73923000
O       -5.84427000       0.00084000       3.07096000
O       -3.07243000       0.00084000       5.84280000
O       -4.74445000       1.70630000       4.74298000
O        3.44473000      -3.06824000       0.00187000
O       -2.15467000       2.15218000       4.64637000
O       -3.44213000       2.36211000       6.92961000
O        4.54455000      -4.74026000       1.70733000
O        4.64116000      -2.15049000       2.15321000
O       -6.93108000       2.36211000      -3.43691000
O       -2.15467000      -2.15049000       4.64637000
O        1.70212000      -4.74026000      -4.54602000
O        3.06574000       0.00084000      -5.83905000
O        4.73776000      -1.70462000      -4.73923000
O        2.14799000      -2.15049000      -4.64263000
O        3.43545000      -2.36042000      -6.92586000
O       -0.00334000       3.06993000       3.44995000
O        1.70212000       4.74195000       4.54977000
O        2.14799000       2.15218000       4.64637000
O        2.35792000       3.43963000       2.36314000
O       -0.00334000      -3.06824000      -3.44620000
O       -1.70880000      -4.74026000      -4.54602000
O        3.43545000      -2.36042000       6.92961000
O        4.54455000       4.74195000       1.70733000
O       -1.70880000       4.74195000       4.54977000
O        2.35792000      -3.43794000       2.36314000
O       -3.45142000       3.06993000       0.00187000
O       -4.55124000       4.74195000      -1.70359000
O       -4.64784000       2.15218000      -2.14946000
O       -2.36461000       3.43963000      -2.35939000
O        5.83758000       0.00084000       3.07096000
O        4.73776000       1.70630000       4.74298000
O        4.64116000       2.15218000       2.15321000
O        6.92439000       2.36211000       3.44066000
O       -6.93108000      -2.36042000       3.44066000
O        1.70212000      -4.74026000       4.54977000
O        2.14799000      -2.15049000       4.64637000
O        3.44473000       3.06993000       0.00187000
O       -3.07243000       0.00084000      -5.83905000
O       -4.74445000      -1.70462000      -4.73923000
O       -3.44213000      -2.36042000      -6.92586000
O        4.73776000      -1.70462000       4.74298000
O        6.92439000      -2.36042000       3.44066000
O        3.06574000       0.00084000       5.84280000
O        3.43545000       2.36211000       6.92961000
O       -3.44213000      -2.36042000       6.92961000
O       -0.00334000       3.06993000      -3.44620000
O        2.14799000       2.15218000      -4.64263000
O        3.43545000       2.36211000      -6.92586000
O       -4.55124000       4.74195000       1.70733000
O       -4.64784000       2.15218000       2.15321000
O       -2.36461000       3.43963000       2.36314000
O        5.83758000       0.00084000      -3.06721000
O        4.64116000       2.15218000      -2.14946000
O        6.92439000       2.36211000      -3.43691000
O       -5.84427000       0.00084000      -3.06721000
O       -4.74445000       1.70630000      -4.73923000
O        4.54455000       4.74195000      -1.70359000
O       -1.70880000       4.74195000      -4.54602000
O       -2.15467000       2.15218000      -4.64263000
O       -3.44213000       2.36211000      -6.92586000
O       -4.55124000      -4.74026000      -1.70359000
O       -4.64784000      -2.15049000      -2.14946000
O        6.92439000      -2.36042000      -3.43691000
O       -6.93108000      -2.36042000      -3.43691000
H       -7.77771000       2.85268000       3.49492000
H        1.79373000       5.58910000      -5.03011000
H       -5.03532000      -5.58741000       1.79895000
H       -1.80042000      -5.58741000       5.03385000
H        5.02864000      -5.58741000      -1.79520000
H       -3.49639000       2.85268000       7.77625000
H        5.02864000      -5.58741000       1.79895000
H       -7.77771000       2.85268000      -3.49117000
H        1.79373000      -5.58741000      -5.03011000
H        3.48970000      -2.85099000      -7.77250000
H        1.79373000       5.58910000       5.03385000
H       -1.80042000      -5.58741000      -5.03011000
H        3.48970000      -2.85099000       7.77625000
H        5.02864000       5.58910000       1.79895000
H       -1.80042000       5.58910000       5.03385000
H       -5.03532000       5.58910000      -1.79520000
H        7.77103000       2.85268000       3.49492000
H       -7.77771000      -2.85099000       3.49492000
H        1.79373000      -5.58741000       5.03385000
H       -3.49639000      -2.85099000      -7.77250000
H        7.77103000      -2.85099000       3.49492000
H        3.48970000       2.85268000       7.77625000
H       -3.49639000      -2.85099000       7.77625000
H        3.48970000       2.85268000      -7.77250000
H       -5.03532000       5.58910000       1.79895000
H        7.77103000       2.85268000      -3.49117000
H        5.02864000       5.58910000      -1.79520000
H       -1.80042000       5.58910000      -5.03011000
H       -3.49639000       2.85268000      -7.77250000
H       -5.03532000      -5.58741000      -1.79520000
H        7.77103000      -2.85099000      -3.49117000
H       -7.77771000      -2.85099000      -3.49117000
