109
Properties=species:S:1:pos:R:3 pbc="F F F"
Ba      -0.03763700      -0.01302400      -0.00091800
Si      -1.53169000      -4.42551000       1.26215000
Si      -4.59682000      -0.89068000      -1.25400000
Al      -3.07071000      -3.53398000      -1.25400000
Si      -3.06899000      -0.00958000      -3.74487000
Si      -1.54374000      -2.65139000      -3.74487000
Si      -3.07329000       0.00086000       3.73898000
Si       1.52226000      -4.42551000       1.26215000
Si      -1.53685000      -2.66033000       3.73898000
Si      -3.07243000       3.53271000       1.26215000
Si       3.06128000      -3.53398000      -1.25400000
Si      -1.53083000       4.41978000      -1.25400000
Si       1.53431000      -2.65139000      -3.74487000
Si      -1.52996000       2.65608000      -3.74487000
Si       1.52742000      -2.66033000       3.73898000
Si      -1.54115000       2.65459000       3.73898000
Si       4.58997000       0.88792000       1.26215000
Si       4.58739000      -0.89068000      -1.25400000
Si       3.05955000      -0.00958000      -3.74487000
Si       3.06386000       0.00086000       3.73898000
Si       3.06300000       3.53271000       1.26215000
Si       1.52139000       4.41978000      -1.25400000
Si       1.52053000       2.65608000      -3.74487000
Si       1.53172000       2.65459000       3.73898000
Al      -4.59940000       0.88792000       1.26215000
O        1.88721000       1.09068000       3.59295000
O        3.57600000      -0.03343000       5.26383000
O        2.48974000       3.51184000       2.76734000
O        4.30248000       4.55544000       1.17509000
O        1.90099000       4.00681000       0.25400000
O        2.50351000       5.59308000      -1.75667000
O        1.68235000       3.13912000      -2.21721000
O        4.26977000      -2.46950000      -1.30174000
O       -2.51466000      -1.44975000       3.32617000
O       -3.58544000      -0.03343000       5.26383000
O       -1.89664000       1.09068000       3.59295000
O       -0.00472000      -4.11541000       0.85777000
O       -1.80024000      -3.91862000       2.76734000
O       -4.42897000      -0.35546000       0.25400000
O       -1.79766000      -6.01030000       1.17509000
O       -2.52327000      -3.65623000       0.25400000
O       -6.10399000      -0.62680000      -1.75667000
O       -3.56822000      -0.11096000      -2.21721000
O        6.09456000      -0.62680000      -1.75667000
O        3.55879000      -0.11096000      -2.21721000
O        2.50265000       3.51631000      -4.68843000
O        1.75810000       3.11527000       5.26383000
O       -6.10485000       1.44998000       1.17509000
O       -2.51294000       5.59308000      -1.75667000
O       -1.69179000       3.13912000      -2.21721000
O       -0.00472000       4.93412000      -1.30174000
O        1.78823000      -3.93204000      -4.68843000
O        2.48802000      -1.44081000      -4.21665000
O       -4.27920000      -2.46950000      -1.30174000
O       -3.59576000      -4.97117000      -1.75667000
O       -1.88115000      -3.03305000      -2.21721000
O       -4.30502000       0.41085000      -4.68843000
O       -2.49745000      -1.44081000      -4.21665000
O       -1.90525000       1.09664000      -3.86001000
O       -1.79766000      -3.93204000      -4.68843000
O       -0.00558000      -2.19667000      -3.86001000
O       -4.29469000       0.40190000       2.76734000
O        1.79081000      -3.91862000       2.76734000
O        4.29559000       0.41085000      -4.68843000
O        1.89668000       1.09515000      -3.86001000
O       -2.51208000       3.51631000      -4.68843000
O       -0.00472000       2.87673000      -4.21665000
O        2.50437000      -1.45124000       3.32617000
O        1.81319000      -3.08672000       5.26383000
O       -0.00385000       2.89611000       3.32617000
O       -1.76753000       3.11527000       5.26383000
O        3.55793000       2.05527000       0.85777000
O        4.28526000       0.40190000       2.76734000
O        6.09542000       1.44998000       1.17509000
O        4.41954000      -0.35546000       0.25400000
O        1.78823000      -6.01030000       1.17509000
O        2.51384000      -3.65623000       0.25400000
O       -0.00472000      -2.18624000       3.59295000
O       -1.82262000      -3.08672000       5.26383000
O       -3.56736000       2.05527000       0.85777000
O       -2.49917000       3.51184000       2.76734000
O       -4.31191000       4.55544000       1.17509000
O       -1.91042000       4.00681000       0.25400000
O        3.58633000      -4.97117000      -1.75667000
O        1.87172000      -3.03305000      -2.21721000
H        3.88795000      -0.05432000       6.19262000
H        5.05727000       5.17824000       1.12208000
H        3.10111000       6.30703000      -2.06254000
H       -3.89738000      -0.05432000       6.19262000
H       -1.95962000      -6.97537000       1.12208000
H       -7.02108000      -0.46623000      -2.06254000
H        7.01165000      -0.46623000      -2.06254000
H        3.10014000       4.03965000      -5.26246000
H        1.89599000       3.39587000       6.19262000
H       -7.02161000       1.79224000       1.12208000
H       -3.11055000       6.30703000      -2.06254000
H        1.94271000      -4.71115000      -5.26246000
H       -3.91526000      -5.84568000      -2.06254000
H       -5.05700000       0.66662000      -5.26246000
H       -1.95214000      -4.71115000      -5.26246000
H        5.04756000       0.66662000      -5.26246000
H       -3.10957000       4.03965000      -5.26246000
H        1.98725000      -3.34643000       6.19262000
H       -1.90542000       3.39587000       6.19262000
H        7.01218000       1.79224000       1.12208000
H        1.95019000      -6.97537000       1.12208000
H       -1.99668000      -3.34643000       6.19262000
H       -5.06670000       5.17824000       1.12208000
H        3.90582000      -5.84568000      -2.06254000
