55
Properties=species:S:1:pos:R:3 pbc="F F F"
Ba      -0.16890600       0.00003100       0.00002800
Si       0.56573000       0.30883000       3.43555000
Si       0.56573000      -0.30883000      -3.43554000
Si      -2.88550000      -1.53433000       0.24211000
Si      -0.46777000       2.27649000      -2.15297000
Al      -1.20243000      -2.62551000      -2.15297000
Al      -1.20243000       2.62551000       2.15297000
Si      -0.46777000      -2.27649000       2.15297000
Si      -2.88550000       1.53433000      -0.24211000
Si       2.76139000      -0.94903000      -1.24056000
Si       1.21529000      -3.36767000      -0.24211000
Si       1.21529000       3.36767000       0.24211000
Si       2.76139000       0.94903000       1.24056000
O       -1.75031000       3.66474000       3.28148000
O       -2.43308000       2.19316000       1.17653000
O       -0.04234000      -3.35199000      -1.27457000
O       -0.59852000       1.30099000       2.87729000
O        0.85419000       0.63726000       5.00225000
O       -0.59852000      -1.30099000      -2.87729000
O        0.08010000      -1.23726000       3.28148000
O        1.93127000       0.53236000       2.57716000
O        0.85419000      -0.63726000      -5.00225000
O        0.08010000       1.23727000      -3.28148000
O        1.93127000      -0.53236000      -2.57716000
O       -4.11408000      -2.39904000       0.87239000
O       -2.43308000      -2.19315000      -1.17653000
O       -1.62787000      -1.55001000       1.27457000
O       -3.37112000       0.00000000       0.00000000
O       -1.07169000       3.60101000      -2.87729000
O        0.76288000       2.70885000      -1.17653000
O       -1.62787000       1.55001000      -1.27457000
O       -1.75031000      -3.66473000      -3.28148000
O       -0.04234000       3.35199000       1.27457000
O       -1.07169000      -3.60101000       2.87729000
O        0.76288000      -2.70884000       1.17653000
O       -4.11408000       2.39904000      -0.87239000
O        2.30483000       0.00000000       0.00000000
O        4.35315000      -0.76275000      -1.51668000
O        2.44387000      -2.50296000      -0.87239000
O        1.70091000      -4.90200000       0.00000000
O        2.44387000       2.50296000       0.87239000
O        1.70091000       4.90200000       0.00000000
O        4.35315000       0.76275000       1.51668000
H       -2.07991000       4.28992000       3.96038000
H        1.02799000       0.83514000       5.94620000
H        1.02799000      -0.83514000      -5.94620000
H       -4.85308000      -2.91917000       1.25152000
H       -1.43568000       4.39933000      -3.31386000
H       -2.07991000      -4.28992000      -3.96038000
H       -1.43568000      -4.39933000       3.31386000
H       -4.85308000       2.91917000      -1.25151000
H        5.31237000      -0.65050000      -1.68308000
H        1.99334000      -5.82592000       0.14579000
H        1.99334000       5.82592000      -0.14579000
H        5.31237000       0.65050000       1.68308000
