55
Properties=species:S:1:pos:R:3 pbc="F F F"
Ba      -0.10186100      -0.52460400      -0.41803500
Si       0.56849000       0.30196000       3.43280000
Si       0.56849000      -0.31569000      -3.43829000
Si      -2.88273000      -1.54119000       0.23937000
Si      -0.46501000       2.26963000      -2.15571000
Al      -1.19966000      -2.63237000      -2.15571000
Si      -1.19966000       2.61865000       2.15023000
Si      -0.46501000      -2.28335000       2.15023000
Si      -2.88273000       1.52746000      -0.24485000
Si       2.76416000      -0.95589000      -1.24330000
Al       1.21806000      -3.37454000      -0.24485000
Si       1.21806000       3.36081000       0.23937000
Si       2.76416000       0.94217000       1.23782000
O       -1.74754000       3.65787000       3.27873000
O       -2.43032000       2.18629000       1.17379000
O       -0.03957000      -3.35885000      -1.27732000
O       -0.59575000       1.29413000       2.87455000
O        0.85696000       0.63040000       4.99951000
O       -0.59575000      -1.30785000      -2.88004000
O        0.08287000      -1.24413000       3.27873000
O        1.93404000       0.52550000       2.57442000
O        0.85696000      -0.64412000      -5.00499000
O        0.08287000       1.23040000      -3.28422000
O        1.93404000      -0.53922000      -2.57990000
O       -4.11131000      -2.40590000       0.86965000
O       -2.43032000      -2.20002000      -1.17927000
O       -1.62510000      -1.55687000       1.27183000
O       -3.36835000      -0.00686000      -0.00274000
O       -1.06892000       3.59415000      -2.88004000
O        0.76565000       2.70198000      -1.17927000
O       -1.62510000       1.54315000      -1.27732000
O       -1.74754000      -3.67160000      -3.28422000
O       -0.03957000       3.34513000       1.27183000
O       -1.06892000      -3.60787000       2.87455000
O        0.76565000      -2.71571000       1.17379000
O       -4.11131000       2.39218000      -0.87513000
O        2.30759000      -0.00686000      -0.00274000
O        4.35592000      -0.76961000      -1.51942000
O        2.44664000      -2.50982000      -0.87513000
O        1.70368000      -4.90886000      -0.00274000
O        2.44664000       2.49610000       0.86965000
O        1.70368000       4.89514000      -0.00274000
O        4.35592000       0.75589000       1.51394000
H       -2.07714000       4.28306000       3.95763000
H        1.03076000       0.82828000       5.94345000
H        1.03076000      -0.84200000      -5.94894000
H       -4.85031000      -2.92603000       1.24877000
H       -1.43291000       4.39247000      -3.31661000
H       -2.07714000      -4.29678000      -3.96312000
H       -1.43291000      -4.40619000       3.31112000
H       -4.85031000       2.91231000      -1.25426000
H        5.31514000      -0.65736000      -1.68582000
H        1.99611000      -5.83278000       0.14305000
H        1.99611000       5.81906000      -0.14853000
H        5.31514000       0.64364000       1.68034000
