73
Properties=species:S:1:pos:R:3 pbc="F F F"
Ba      -0.00032400      -0.04046500       0.00072400
Si       1.54973000       3.73985000      -1.54287000
Al       3.74261000      -1.55249000       1.54287000
Si      -1.54973000      -3.74536000       1.54287000
Si       1.54973000      -3.74536000       1.54287000
Si       1.54973000       3.73985000       1.54287000
Si      -1.54973000      -3.74536000      -1.54287000
Si       3.74261000      -1.55249000      -1.54287000
Si       1.54973000      -3.74536000      -1.54287000
Si       3.74261000       1.54697000       1.54287000
Si      -3.74260000       1.54697000      -1.54287000
Si       3.74261000       1.54697000      -1.54287000
Si      -1.54973000       3.73985000      -1.54287000
Si      -3.74260000       1.54697000       1.54287000
Si      -3.74260000      -1.55249000       1.54287000
Si      -1.54973000       3.73985000       1.54287000
Al      -3.74260000      -1.55249000      -1.54287000
O        4.93923000       2.06401000      -2.48850000
O       -2.41847000      -2.42123000      -1.83154000
O        0.00000000      -3.44551000      -1.85742000
O        2.06677000       4.93647000       2.48850000
O        2.41847000       2.41571000      -1.83154000
O        1.71367000       4.16721000       0.00000000
O        2.41847000      -2.42123000       1.83154000
O        0.00000000       3.43999000      -1.85742000
O        2.06677000       4.93647000      -2.48850000
O        4.16997000      -1.71643000       0.00000000
O        3.44275000      -0.00276000       1.85742000
O       -1.71367000       4.16721000       0.00000000
O       -2.06677000       4.93647000      -2.48850000
O       -2.41847000       2.41571000       1.83154000
O       -3.44275000      -0.00276000       1.85742000
O       -4.93923000       2.06401000       2.48850000
O        4.93923000      -2.06953000       2.48850000
O       -2.41847000      -2.42123000       1.83154000
O       -1.71367000      -4.17273000       0.00000000
O        0.00000000      -3.44551000       1.85742000
O       -2.06677000      -4.94199000       2.48850000
O        1.71367000      -4.17273000       0.00000000
O        2.06677000      -4.94199000       2.48850000
O        2.41847000       2.41571000       1.83154000
O        0.00000000       3.43999000       1.85742000
O       -2.06677000      -4.94199000      -2.48850000
O       -4.16997000      -1.71643000       0.00000000
O       -4.93923000      -2.06953000       2.48850000
O       -2.06677000       4.93647000       2.48850000
O       -4.93923000      -2.06953000      -2.48850000
O        2.41847000      -2.42123000      -1.83154000
O        3.44275000      -0.00276000      -1.85742000
O        4.93923000      -2.06953000      -2.48850000
O        2.06677000      -4.94199000      -2.48850000
O        4.16997000       1.71091000       0.00000000
O        4.93923000       2.06401000       2.48850000
O       -2.41847000       2.41571000      -1.83154000
O       -4.16997000       1.71091000       0.00000000
O       -3.44275000      -0.00276000      -1.85742000
O       -4.93923000       2.06401000      -2.48850000
H        5.66742000       2.37865000      -3.06395000
H        2.38141000       5.66466000       3.06395000
H        2.38141000       5.66466000      -3.06395000
H       -2.38141000       5.66466000      -3.06395000
H       -5.66742000       2.37865000       3.06395000
H        5.66742000      -2.38417000       3.06395000
H       -2.38141000      -5.67018000       3.06395000
H        2.38141000      -5.67018000       3.06395000
H       -2.38141000      -5.67018000      -3.06395000
H       -5.66742000      -2.38417000       3.06395000
H       -2.38141000       5.66466000       3.06395000
H       -5.66742000      -2.38417000      -3.06395000
H        5.66742000      -2.38417000      -3.06395000
H        2.38141000      -5.67018000      -3.06395000
H        5.66742000       2.37865000       3.06395000
H       -5.66742000       2.37865000      -3.06395000
