145
Properties=species:S:1:pos:R:3 pbc="F F F"
Ba      -0.03635500       0.02286200      -0.00029400
Al      -3.35277000       1.55644000       5.53624000
Si       3.74960000      -3.34815000       1.55498000
Si      -3.75591000       3.35108000      -1.55498000
Si       5.53309000       1.55644000       3.34961000
Si      -5.53940000      -1.55352000       3.34961000
Si       3.34646000      -1.55352000      -5.53624000
Si       1.55183000       3.35108000       3.75276000
Si      -1.55813000      -3.34815000      -3.75276000
Si       3.74960000      -3.34815000      -1.55498000
Si       3.34646000       1.55644000      -5.53624000
Si      -3.75591000       3.35108000       1.55498000
Si       5.53309000       1.55644000      -3.34961000
Si      -5.53940000       1.55644000      -3.34961000
Si      -3.35277000      -1.55352000       5.53624000
Si       1.55183000       3.35108000      -3.75276000
Si      -3.75591000      -3.34815000       1.55498000
Si      -1.55813000      -3.34815000       3.75276000
Si       5.53309000      -1.55352000       3.34961000
Si       3.34646000       1.55644000       5.53624000
Si      -5.53940000       1.55644000       3.34961000
Si      -3.35277000      -1.55352000      -5.53624000
Si       1.55183000      -3.34815000       3.75276000
Si       3.74960000       3.35108000      -1.55498000
Si      -1.55813000       3.35108000      -3.75276000
Al      -3.35277000       1.55644000      -5.53624000
Si      -3.75591000      -3.34815000      -1.55498000
Si       5.53309000      -1.55352000      -3.34961000
Si      -5.53940000      -1.55352000      -3.34961000
Si       1.55183000      -3.34815000      -3.75276000
Si       3.34646000      -1.55352000       5.53624000
Si       3.74960000       3.35108000       1.55498000
Si      -1.55813000       3.35108000       3.75276000
O       -6.93089000       2.36273000       3.43879000
O        1.70231000       4.74257000      -4.54789000
O        2.35811000       3.44025000      -2.36126000
O       -3.45123000      -3.06762000       0.00000000
O       -4.55105000      -4.73964000       1.70546000
O       -2.36442000      -3.43732000       2.36126000
O       -0.00315000      -3.06762000       3.44808000
O       -1.70861000      -4.73964000       4.54789000
O       -2.15448000      -2.14987000      -4.64450000
O       -4.74426000      -1.70400000       4.74111000
O       -4.64765000      -2.14987000       2.15133000
O       -2.36442000      -3.43732000      -2.36126000
O        4.54474000      -4.73964000      -1.70546000
O        4.64135000      -2.14987000      -2.15133000
O        2.35811000      -3.43732000      -2.36126000
O        4.73795000       1.70692000      -4.74111000
O       -5.84408000       0.00146000       3.06909000
O       -3.07224000       0.00146000       5.84092000
O       -4.74426000       1.70692000       4.74111000
O        3.44492000      -3.06762000       0.00000000
O       -2.15448000       2.15280000       4.64450000
O       -3.44194000       2.36273000       6.92774000
O        4.54474000      -4.73964000       1.70546000
O        4.64135000      -2.14987000       2.15133000
O       -6.93089000       2.36273000      -3.43879000
O       -2.15448000      -2.14987000       4.64450000
O        1.70231000      -4.73964000      -4.54789000
O        3.06593000       0.00146000      -5.84092000
O        4.73795000      -1.70400000      -4.74111000
O        2.14818000      -2.14987000      -4.64450000
O        3.43564000      -2.35980000      -6.92774000
O       -0.00315000       3.07055000       3.44808000
O        1.70231000       4.74257000       4.54789000
O        2.14818000       2.15280000       4.64450000
O        2.35811000       3.44025000       2.36126000
O       -0.00315000      -3.06762000      -3.44808000
O       -1.70861000      -4.73964000      -4.54789000
O        3.43564000      -2.35980000       6.92774000
O        4.54474000       4.74257000       1.70546000
O       -1.70861000       4.74257000       4.54789000
O        2.35811000      -3.43732000       2.36126000
O       -3.45123000       3.07055000       0.00000000
O       -4.55105000       4.74257000      -1.70546000
O       -4.64765000       2.15280000      -2.15133000
O       -2.36442000       3.44025000      -2.36126000
O        5.83777000       0.00146000       3.06909000
O        4.73795000       1.70692000       4.74111000
O        4.64135000       2.15280000       2.15133000
O        6.92458000       2.36273000       3.43879000
O       -6.93089000      -2.35980000       3.43879000
O        1.70231000      -4.73964000       4.54789000
O        2.14818000      -2.14987000       4.64450000
O        3.44492000       3.07055000       0.00000000
O       -3.07224000       0.00146000      -5.84092000
O       -4.74426000      -1.70400000      -4.74111000
O       -3.44194000      -2.35980000      -6.92774000
O        4.73795000      -1.70400000       4.74111000
O        6.92458000      -2.35980000       3.43879000
O        3.06593000       0.00146000       5.84092000
O        3.43564000       2.36273000       6.92774000
O       -3.44194000      -2.35980000       6.92774000
O       -0.00315000       3.07055000      -3.44808000
O        2.14818000       2.15280000      -4.64450000
O        3.43564000       2.36273000      -6.92774000
O       -4.55105000       4.74257000       1.70546000
O       -4.64765000       2.15280000       2.15133000
O       -2.36442000       3.44025000       2.36126000
O        5.83777000       0.00146000      -3.06909000
O        4.64135000       2.15280000      -2.15133000
O        6.92458000       2.36273000      -3.43879000
O       -5.84408000       0.00146000      -3.06909000
O       -4.74426000       1.70692000      -4.74111000
O        4.54474000       4.74257000      -1.70546000
O       -1.70861000       4.74257000      -4.54789000
O       -2.15448000       2.15280000      -4.64450000
O       -3.44194000       2.36273000      -6.92774000
O       -4.55105000      -4.73964000      -1.70546000
O       -4.64765000      -2.14987000      -2.15133000
O        6.92458000      -2.35980000      -3.43879000
O       -6.93089000      -2.35980000      -3.43879000
H       -7.77752000       2.85330000       3.49304000
H        1.79392000       5.58972000      -5.03198000
H       -5.03513000      -5.58679000       1.79707000
H       -1.80023000      -5.58679000       5.03198000
H        5.02883000      -5.58679000      -1.79708000
H       -3.49620000       2.85330000       7.77437000
H        5.02883000      -5.58679000       1.79707000
H       -7.77752000       2.85330000      -3.49305000
H        1.79392000      -5.58679000      -5.03198000
H        3.48989000      -2.85037000      -7.77437000
H        1.79392000       5.58972000       5.03198000
H       -1.80023000      -5.58679000      -5.03198000
H        3.48989000      -2.85037000       7.77437000
H        5.02883000       5.58972000       1.79707000
H       -1.80023000       5.58972000       5.03198000
H       -5.03513000       5.58972000      -1.79708000
H        7.77122000       2.85330000       3.49304000
H       -7.77752000      -2.85037000       3.49304000
H        1.79392000      -5.58679000       5.03198000
H       -3.49620000      -2.85037000      -7.77437000
H        7.77122000      -2.85037000       3.49304000
H        3.48989000       2.85330000       7.77437000
H       -3.49620000      -2.85037000       7.77437000
H        3.48989000       2.85330000      -7.77437000
H       -5.03513000       5.58972000       1.79707000
H        7.77122000       2.85330000      -3.49305000
H        5.02883000       5.58972000      -1.79708000
H       -1.80023000       5.58972000      -5.03198000
H       -3.49620000       2.85330000      -7.77437000
H       -5.03513000      -5.58679000      -1.79708000
H        7.77122000      -2.85037000      -3.49305000
H       -7.77752000      -2.85037000      -3.49305000
