145
Properties=species:S:1:pos:R:3 pbc="F F F"
Rb       0.41669000      -0.36175700       0.17288500
Si      -3.34781000       1.55337000       5.53699000
Al       3.75456000      -3.35122000       1.55573000
Si      -3.75095000       3.34800000      -1.55423000
Si       5.53805000       1.55337000       3.35036000
Si      -5.53444000      -1.55659000       3.35036000
Si       3.35142000      -1.55659000      -5.53550000
Si       1.55678000       3.34800000       3.75350000
Si      -1.55317000      -3.35122000      -3.75201000
Si       3.75456000      -3.35122000      -1.55423000
Si       3.35142000       1.55337000      -5.53550000
Si      -3.75095000       3.34800000       1.55573000
Si       5.53805000       1.55337000      -3.34887000
Si      -5.53444000       1.55337000      -3.34887000
Si      -3.34781000      -1.55659000       5.53699000
Si       1.55678000       3.34800000      -3.75201000
Si      -3.75095000      -3.35122000       1.55573000
Si      -1.55317000      -3.35122000       3.75350000
Si       5.53805000      -1.55659000       3.35036000
Si       3.35142000       1.55337000       5.53699000
Si      -5.53444000       1.55337000       3.35036000
Si      -3.34781000      -1.55659000      -5.53550000
Si       1.55678000      -3.35122000       3.75350000
Si       3.75456000       3.34800000      -1.55423000
Si      -1.55317000       3.34800000      -3.75201000
Si      -3.34781000       1.55337000      -5.53550000
Si      -3.75095000      -3.35122000      -1.55423000
Si       5.53805000      -1.55659000      -3.34887000
Si      -5.53444000      -1.55659000      -3.34887000
Si       1.55678000      -3.35122000      -3.75201000
Si       3.35142000      -1.55659000       5.53699000
Si       3.75456000       3.34800000       1.55573000
Si      -1.55317000       3.34800000       3.75350000
O       -6.92593000       2.35965000       3.43954000
O        1.70726000       4.73949000      -4.54715000
O        2.36307000       3.43718000      -2.36052000
O       -3.44627000      -3.07070000       0.00075000
O       -4.54609000      -4.74272000       1.70621000
O       -2.35946000      -3.44040000       2.36201000
O        0.00180000      -3.07070000       3.44882000
O       -1.70366000      -4.74272000       4.54864000
O       -2.14953000      -2.15294000      -4.64375000
O       -4.73930000      -1.70707000       4.74185000
O       -4.64270000      -2.15294000       2.15208000
O       -2.35946000      -3.44040000      -2.36052000
O        4.54970000      -4.74272000      -1.70471000
O        4.64630000      -2.15294000      -2.15058000
O        2.36307000      -3.44040000      -2.36052000
O        4.74291000       1.70385000      -4.74036000
O       -5.83912000      -0.00161000       3.06983000
O       -3.06728000      -0.00161000       5.84167000
O       -4.73930000       1.70385000       4.74185000
O        3.44988000      -3.07070000       0.00075000
O       -2.14953000       2.14972000       4.64525000
O       -3.43698000       2.35965000       6.92848000
O        4.54970000      -4.74272000       1.70621000
O        4.64630000      -2.15294000       2.15208000
O       -6.92593000       2.35965000      -3.43804000
O       -2.14953000      -2.15294000       4.64525000
O        1.70726000      -4.74272000      -4.54715000
O        3.07089000      -0.00161000      -5.84018000
O        4.74291000      -1.70707000      -4.74036000
O        2.15314000      -2.15294000      -4.64375000
O        3.44059000      -2.36288000      -6.92699000
O        0.00180000       3.06747000       3.44882000
O        1.70726000       4.73949000       4.54864000
O        2.15314000       2.14972000       4.64525000
O        2.36307000       3.43718000       2.36201000
O        0.00180000      -3.07070000      -3.44733000
O       -1.70366000      -4.74272000      -4.54715000
O        3.44059000      -2.36288000       6.92848000
O        4.54970000       4.73949000       1.70621000
O       -1.70366000       4.73949000       4.54864000
O        2.36307000      -3.44040000       2.36201000
O       -3.44627000       3.06747000       0.00075000
O       -4.54609000       4.73949000      -1.70471000
O       -4.64270000       2.14972000      -2.15058000
O       -2.35946000       3.43718000      -2.36052000
O        5.84273000      -0.00161000       3.06983000
O        4.74291000       1.70385000       4.74185000
O        4.64630000       2.14972000       2.15208000
O        6.92954000       2.35965000       3.43954000
O       -6.92593000      -2.36288000       3.43954000
O        1.70726000      -4.74272000       4.54864000
O        2.15314000      -2.15294000       4.64525000
O        3.44988000       3.06747000       0.00075000
O       -3.06728000      -0.00161000      -5.84018000
O       -4.73930000      -1.70707000      -4.74036000
O       -3.43698000      -2.36288000      -6.92699000
O        4.74291000      -1.70707000       4.74185000
O        6.92954000      -2.36288000       3.43954000
O        3.07089000      -0.00161000       5.84167000
O        3.44059000       2.35965000       6.92848000
O       -3.43698000      -2.36288000       6.92848000
O        0.00180000       3.06747000      -3.44733000
O        2.15314000       2.14972000      -4.64375000
O        3.44059000       2.35965000      -6.92699000
O       -4.54609000       4.73949000       1.70621000
O       -4.64270000       2.14972000       2.15208000
O       -2.35946000       3.43718000       2.36201000
O        5.84273000      -0.00161000      -3.06834000
O        4.64630000       2.14972000      -2.15058000
O        6.92954000       2.35965000      -3.43804000
O       -5.83912000      -0.00161000      -3.06834000
O       -4.73930000       1.70385000      -4.74036000
O        4.54970000       4.73949000      -1.70471000
O       -1.70366000       4.73949000      -4.54715000
O       -2.14953000       2.14972000      -4.64375000
O       -3.43698000       2.35965000      -6.92699000
O       -4.54609000      -4.74272000      -1.70471000
O       -4.64270000      -2.15294000      -2.15058000
O        6.92954000      -2.36288000      -3.43804000
O       -6.92593000      -2.36288000      -3.43804000
H       -7.77257000       2.85023000       3.49379000
H        1.79888000       5.58665000      -5.03123000
H       -5.03018000      -5.58987000       1.79782000
H       -1.79527000      -5.58987000       5.03273000
H        5.03379000      -5.58987000      -1.79633000
H       -3.49124000       2.85023000       7.77512000
H        5.03379000      -5.58987000       1.79782000
H       -7.77257000       2.85023000      -3.49230000
H        1.79888000      -5.58987000      -5.03123000
H        3.49485000      -2.85345000      -7.77362000
H        1.79888000       5.58665000       5.03273000
H       -1.79527000      -5.58987000      -5.03123000
H        3.49485000      -2.85345000       7.77512000
H        5.03379000       5.58665000       1.79782000
H       -1.79527000       5.58665000       5.03273000
H       -5.03018000       5.58665000      -1.79633000
H        7.77618000       2.85023000       3.49379000
H       -7.77257000      -2.85345000       3.49379000
H        1.79888000      -5.58987000       5.03273000
H       -3.49124000      -2.85345000      -7.77362000
H        7.77618000      -2.85345000       3.49379000
H        3.49485000       2.85023000       7.77512000
H       -3.49124000      -2.85345000       7.77512000
H        3.49485000       2.85023000      -7.77362000
H       -5.03018000       5.58665000       1.79782000
H        7.77618000       2.85023000      -3.49230000
H        5.03379000       5.58665000      -1.79633000
H       -1.79527000       5.58665000      -5.03123000
H       -3.49124000       2.85023000      -7.77362000
H       -5.03018000      -5.58987000      -1.79633000
H        7.77618000      -2.85345000      -3.49230000
H       -7.77257000      -2.85345000      -3.49230000
