55
Properties=species:S:1:pos:R:3 pbc="F F F"
Ba      -0.05755800      -0.39125300      -0.45392100
Si       0.57052000       0.30462000       3.43133000
Al       0.57052000      -0.31304000      -3.43976000
Si      -2.88071000      -1.53854000       0.23790000
Si      -0.46298000       2.27228000      -2.15718000
Si      -1.19764000      -2.62972000      -2.15718000
Si      -1.19764000       2.62130000       2.14876000
Si      -0.46298000      -2.28070000       2.14876000
Si      -2.88071000       1.53012000      -0.24632000
Si       2.76618000      -0.95324000      -1.24477000
Al       1.22009000      -3.37188000      -0.24632000
Si       1.22009000       3.36346000       0.23790000
Si       2.76618000       0.94482000       1.23635000
O       -1.74552000       3.66053000       3.27727000
O       -2.42829000       2.18895000       1.17232000
O       -0.03755000      -3.35620000      -1.27878000
O       -0.59373000       1.29678000       2.87308000
O        0.85898000       0.63305000       4.99804000
O       -0.59373000      -1.30520000      -2.88150000
O        0.08490000      -1.24147000       3.27727000
O        1.93606000       0.52815000       2.57295000
O        0.85898000      -0.64147000      -5.00646000
O        0.08490000       1.23306000      -3.28569000
O        1.93606000      -0.53657000      -2.58137000
O       -4.10928000      -2.40325000       0.86818000
O       -2.42829000      -2.19736000      -1.18074000
O       -1.62308000      -1.55422000       1.27036000
O       -3.36633000      -0.00421000      -0.00421000
O       -1.06689000       3.59680000      -2.88150000
O        0.76767000       2.70464000      -1.18074000
O       -1.62308000       1.54580000      -1.27878000
O       -1.74552000      -3.66894000      -3.28569000
O       -0.03755000       3.34778000       1.27036000
O       -1.06689000      -3.60522000       2.87308000
O        0.76767000      -2.71305000       1.17232000
O       -4.10928000       2.39483000      -0.87660000
O        2.30962000      -0.00421000      -0.00421000
O        4.35794000      -0.76696000      -1.52089000
O        2.44866000      -2.50717000      -0.87660000
O        1.70571000      -4.90621000      -0.00421000
O        2.44866000       2.49875000       0.86818000
O        1.70571000       4.89779000      -0.00421000
O        4.35794000       0.75854000       1.51247000
H       -2.07512000       4.28571000       3.95617000
H        1.03279000       0.83093000       5.94199000
H        1.03279000      -0.83935000      -5.95041000
H       -4.84829000      -2.92338000       1.24730000
H       -1.43089000       4.39512000      -3.31807000
H       -2.07512000      -4.29413000      -3.96459000
H       -1.43089000      -4.40354000       3.30965000
H       -4.84829000       2.91496000      -1.25573000
H        5.31716000      -0.65471000      -1.68729000
H        1.99813000      -5.83013000       0.14158000
H        1.99813000       5.82171000      -0.15000000
H        5.31716000       0.64629000       1.67887000
