109
Properties=species:S:1:pos:R:3 pbc="F F F"
Ba      -0.01296700       0.02072100      -0.02149800
Si      -2.16884000       0.00188000       4.06268000
Si      -1.50197000       3.75700000      -2.93310000
Al       2.30650000       4.56331000      -0.09813000
Si      -4.56232000      -2.30550000      -0.09813000
Si      -4.50897000       0.00187300       1.96652000
Si       1.50018000      -3.75323000      -2.93310000
Si      -2.30828000      -4.55954000      -0.09813000
Si      -0.00089000       2.16983000       4.06268000
Si       1.50018000       3.75700000      -2.93310000
Si      -2.30828000       4.56331000      -0.09813000
Si      -0.00089000       4.50996000       1.96652000
Si      -0.00089000      -2.16607000       4.06268000
Si       3.75422000       1.50296000      -2.93310000
Si      -1.50197000      -3.75323000      -2.93310000
Si       2.30650000      -4.55954000      -0.09813000
Si      -0.00089000      -4.50619000       1.96652000
Al      -3.75600000      -1.49919000      -2.93310000
Si      -4.56232000       2.30927000      -0.09813000
Si      -3.75600000       1.50296000      -2.93310000
Si       4.56053000      -2.30550000      -0.09813000
Si       2.16706000       0.00188000       4.06268000
Si       3.75422000      -1.49919000      -2.93310000
Si       4.56053000       2.30927000      -0.09813000
Si       4.50718000       0.00188000       1.96652000
O       -4.75389000       1.90672000      -4.13008000
O        4.51203000      -1.54769000      -1.51562000
O        4.15677000      -1.30762000       1.09885000
O        6.06161000      -2.83415000       0.15673000
O        3.57235000       0.00188000       3.27805000
O        2.47140000       0.00188000       5.64338000
O        4.75211000      -1.90295000      -4.13008000
O       -1.31039000       4.15955000       1.09885000
O       -6.06339000       0.00188600       2.38461000
O        1.54868000      -4.51104000      -1.51562000
O       -4.15855000       1.31138000       1.09885000
O       -3.57413000       0.00188100       3.27805000
O       -2.47318000       0.00188000       5.64338000
O       -1.55047000       4.51481000      -1.51562000
O       -1.31524000      -1.31247000       3.69041000
O       -1.31524000       1.31623000       3.69041000
O       -1.90573000       4.75488000      -4.13008000
O       -0.00089000       3.22835000      -3.18796000
O       -4.75389000      -1.90295000      -4.13008000
O       -3.22735000       0.00188000      -3.18796000
O        4.15677000       1.31138000       1.09885000
O        6.06161000       2.83792000       0.15673000
O        6.06161000       0.00188000       2.38461000
O       -2.83693000       6.06438000       0.15673000
O       -3.57292000       3.57391000      -0.12391000
O       -0.00089000       6.06438000       2.38461000
O       -0.00089000      -3.57135000       3.27805000
O       -0.00089000      -2.47040000       5.64338000
O       -2.49137000       2.49236000      -2.90733000
O        1.54868000       4.51481000      -1.51562000
O        1.30861000       4.15955000       1.09885000
O        2.83515000       6.06438000       0.15673000
O        3.57113000       3.57391000      -0.12391000
O       -4.51382000      -1.54769000      -1.51562000
O       -4.15855000      -1.30762000       1.09885000
O       -6.06339000      -2.83415000       0.15673000
O       -3.57292000      -3.57014000      -0.12391000
O        1.90395000      -4.75112000      -4.13008000
O       -4.51382000       1.55146000      -1.51562000
O       -6.06339000       2.83792000       0.15673000
O        1.31346000      -1.31247000       3.69041000
O        4.51203000       1.55146000      -1.51562000
O        4.75211000       1.90672000      -4.13008000
O        3.22557000       0.00188000      -3.18796000
O       -1.90573000      -4.75112000      -4.13008000
O       -2.49137000      -2.48859000      -2.90733000
O        1.30861000      -4.15578000       1.09885000
O        2.83515000      -6.06062000       0.15673000
O        3.57113000      -3.57014000      -0.12391000
O       -0.00089000      -6.06062000       2.38461000
O       -0.00089000      -3.22458000      -3.18796000
O        2.48958000      -2.48859000      -2.90733000
O       -1.55047000      -4.51104000      -1.51562000
O       -1.31039000      -4.15578000       1.09885000
O       -2.83693000      -6.06062000       0.15673000
O       -0.00089000       3.57512000       3.27805000
O       -0.00089000       2.47417000       5.64338000
O        1.31346000       1.31623000       3.69041000
O        1.90395000       4.75488000      -4.13008000
O        2.48958000       2.49236000      -2.90733000
H       -5.36136000       2.15252000      -4.85876000
H        6.97433000      -3.15560000       0.31169000
H        2.65668000       0.00188000       6.60571000
H        5.35958000      -2.14875000      -4.85876000
H       -7.00976000       0.00187900       2.63915000
H       -2.65846000       0.00188000       6.60571000
H       -2.15152000       5.36236000      -4.85876000
H       -5.36136000      -2.14875000      -4.85876000
H        6.97433000       3.15936000       0.31169000
H        7.00798000       0.00188000       2.63915000
H       -3.15837000       6.97711000       0.31169000
H       -0.00089000       7.01075000       2.63915000
H       -0.00089000      -2.65568000       6.60571000
H        3.15659000       6.97711000       0.31169000
H       -6.97611000      -3.15560000       0.31169000
H        2.14974000      -5.35859000      -4.85876000
H       -6.97611000       3.15936000       0.31169000
H        5.35958000       2.15252000      -4.85876000
H       -2.15152000      -5.35859000      -4.85876000
H        3.15659000      -6.97334000       0.31169000
H       -0.00089000      -7.00698000       2.63915000
H       -3.15837000      -6.97334000       0.31169000
H       -0.00089000       2.65945000       6.60571000
H        2.14974000       5.36236000      -4.85876000
