55
Properties=species:S:1:pos:R:3 pbc="F F F"
Ba      -0.34014600      -0.12558800       0.17415600
Si       1.53472000       0.46328000      -3.07548000
Al      -3.10589000      -1.20967000      -0.96127000
Si       1.53745000       2.88383000      -1.11850000
Al      -1.54534000      -0.46711000       3.08032000
Si       3.09526000       1.20584000       0.96611000
Si       3.09526000      -1.20967000      -0.96127000
Si      -1.54534000       0.46328000      -3.07548000
Si       1.53745000      -2.88766000       1.12334000
Si      -3.10589000       1.20584000       0.96611000
Si       1.53472000      -0.46711000       3.08032000
Si      -1.54808000       2.88383000      -1.11850000
Si      -1.54808000      -2.88766000       1.12334000
O        3.54524000      -0.00192000       0.00242000
O        1.99837000      -2.11737000      -0.21214000
O        4.37953000       2.10597000       1.33235000
O       -0.00531000       0.00313000      -2.98300000
O        1.97648000       0.55027000      -4.62183000
O       -2.47264000      -0.61083000      -2.31525000
O        1.70705000       1.90804000      -2.38924000
O        2.46202000      -0.61083000      -2.31525000
O       -2.00899000      -2.11737000      -0.21214000
O       -4.39016000      -2.10981000      -1.32751000
O       -3.55586000      -0.00192000       0.00242000
O        1.99837000       2.11354000       0.21699000
O       -0.00531000       3.32129000      -0.98162000
O        2.44834000       4.19369000      -1.32751000
O       -0.00531000      -0.00696000       2.98784000
O       -1.98711000      -0.55410000       4.62667000
O       -1.71767000      -1.91188000       2.39408000
O       -2.47264000       0.60700000       2.32009000
O        2.46202000       0.60700000       2.32009000
O        4.37953000      -2.10981000      -1.32751000
O       -1.98711000       0.55027000      -4.62183000
O       -1.71767000       1.90804000      -2.38924000
O        1.70705000      -1.91188000       2.39408000
O       -0.00531000      -3.32512000       0.98646000
O        2.44834000      -4.19753000       1.33235000
O       -2.00899000       2.11354000       0.21699000
O       -4.39016000       2.10597000       1.33235000
O        1.97648000      -0.55410000       4.62667000
O       -2.45897000       4.19369000      -1.32751000
O       -2.45897000      -4.19753000       1.33235000
H        5.16102000       2.65371000       1.55521000
H        2.24529000       0.60320000      -5.56276000
H       -5.17164000      -2.65754000      -1.55037000
H        3.00311000       4.99146000      -1.45481000
H       -2.25592000      -0.60703000       5.56760000
H        5.16102000      -2.65754000      -1.55037000
H       -2.25592000       0.60320000      -5.56276000
H        3.00311000      -4.99529000       1.45965000
H       -5.17164000       2.65371000       1.55521000
H        2.24529000      -0.60703000       5.56760000
H       -3.01374000       4.99146000      -1.45481000
H       -3.01374000      -4.99529000       1.45965000
