55
Properties=species:S:1:pos:R:3 pbc="F F F"
Ba      -0.17346600       0.15557600       0.17734300
Si       0.56657000       0.31093000       3.43610000
Si       0.56657000      -0.30673000      -3.43499000
Al      -2.88466100      -1.53223000       0.24266200
Si      -0.46692900       2.27859100      -2.15240800
Si      -1.20159000      -2.62341000      -2.15241000
Si      -1.20159000       2.62761000       2.15352000
Si      -0.46693100      -2.27439100       2.15352000
Si      -2.88465900       1.53643000      -0.24154800
Si       2.76223000      -0.94692900      -1.24000100
Si       1.21613000      -3.36557000      -0.24155000
Al       1.21613000       3.36977000       0.24266000
Si       2.76223000       0.95112900       1.24111100
O       -1.74947000       3.66683000       3.28203000
O       -2.43224000       2.19525000       1.17708000
O       -0.04150000      -3.34989000      -1.27402000
O       -0.59768000       1.30309000       2.87785000
O        0.85503000       0.63936000       5.00280000
O       -0.59768000      -1.29889000      -2.87674000
O        0.08095000      -1.23517000       3.28203000
O        1.93211000       0.53446000       2.57771000
O        0.85503000      -0.63516000      -5.00170000
O        0.08095000       1.23936000      -3.28092000
O        1.93211000      -0.53026000      -2.57660000
O       -4.11324000      -2.39694000       0.87294900
O       -2.43224000      -2.19106000      -1.17597000
O       -1.62702900      -1.54790900       1.27513000
O       -3.37028000       0.00210000       0.00054900
O       -1.07085000       3.60311000      -2.87674000
O        0.76372000       2.71094000      -1.17597000
O       -1.62703200       1.55210900      -1.27402300
O       -1.74947000      -3.66264000      -3.28092000
O       -0.04150000       3.35409000       1.27513000
O       -1.07085000      -3.59891000       2.87785000
O        0.76372000      -2.70675000       1.17708000
O       -4.11324000       2.40114000      -0.87184000
O        2.30567000       0.00210100       0.00054900
O        4.35399000      -0.76065000      -1.51613000
O        2.44471000      -2.50086000      -0.87184000
O        1.70176000      -4.89990000       0.00055000
O        2.44471000       2.50506000       0.87295000
O        1.70176000       4.90410000       0.00055000
O        4.35399000       0.76485000       1.51724000
H       -2.07907000       4.29202000       3.96093000
H        1.02884000       0.83724000       5.94675000
H        1.02884000      -0.83304000      -5.94564000
H       -4.85224000      -2.91707000       1.25207000
H       -1.43484000       4.40143000      -3.31331000
H       -2.07907000      -4.28782000      -3.95982000
H       -1.43484000      -4.39723000       3.31442000
H       -4.85224000       2.92127000      -1.25096000
H        5.31321000      -0.64840000      -1.68253000
H        1.99418000      -5.82382000       0.14634000
H        1.99418000       5.82802000      -0.14524000
H        5.31321000       0.65260000       1.68363000
