55
Properties=species:S:1:pos:R:3 pbc="F F F"
Ba      -0.10552800       0.11211900      -0.14662700
Si       1.53825000       0.46712000      -3.08029000
Al      -3.10236000      -1.20583000      -0.96608000
Al       1.54098000       2.88766000      -1.12330000
Si      -1.54181000      -0.46328000       3.07551000
Si       3.09879000       1.20967000       0.96131000
Si       3.09879000      -1.20583000      -0.96608000
Si      -1.54181000       0.46712000      -3.08029000
Si       1.54098000      -2.88382000       1.11853000
Si      -3.10236000       1.20967000       0.96131000
Si       1.53825000      -0.46328000       3.07551000
Si      -1.54455000       2.88766000      -1.12330000
Si      -1.54455000      -2.88382000       1.11853000
O        3.54877000       0.00192000      -0.00239000
O        2.00190000      -2.11353000      -0.21695000
O        4.38306000       2.10981000       1.32755000
O       -0.00178000       0.00696000      -2.98780000
O        1.98001000       0.55411000      -4.62664000
O       -2.46911000      -0.60700000      -2.32006000
O        1.71058000       1.91188000      -2.39405000
O        2.46555000      -0.60700000      -2.32006000
O       -2.00546000      -2.11353000      -0.21695000
O       -4.38663000      -2.10597000      -1.33232000
O       -3.55233000       0.00192000      -0.00239000
O        2.00190000       2.11738000       0.21218000
O       -0.00178000       3.32513000      -0.98643000
O        2.45187000       4.19753000      -1.33232000
O       -0.00178000      -0.00312000       2.98303000
O       -1.98358000      -0.55027000       4.62186000
O       -1.71414000      -1.90804000       2.38928000
O       -2.46911000       0.61084000       2.31529000
O        2.46555000       0.61084000       2.31529000
O        4.38306000      -2.10597000      -1.33232000
O       -1.98358000       0.55411000      -4.62664000
O       -1.71414000       1.91188000      -2.39405000
O        1.71058000      -1.90804000       2.38928000
O       -0.00178000      -3.32128000       0.98165000
O        2.45187000      -4.19369000       1.32755000
O       -2.00546000       2.11738000       0.21218000
O       -4.38663000       2.10981000       1.32755000
O        1.98001000      -0.55027000       4.62186000
O       -2.45544000       4.19753000      -1.33232000
O       -2.45544000      -4.19369000       1.32755000
H        5.16455000       2.65755000       1.55041000
H        2.24882000       0.60704000      -5.56756000
H       -5.16811000      -2.65371000      -1.55518000
H        3.00664000       4.99529000      -1.45962000
H       -2.25239000      -0.60320000       5.56279000
H        5.16455000      -2.65371000      -1.55518000
H       -2.25239000       0.60704000      -5.56756000
H        3.00664000      -4.99145000       1.45485000
H       -5.16811000       2.65755000       1.55041000
H        2.24882000      -0.60320000       5.56279000
H       -3.01021000       4.99529000      -1.45962000
H       -3.01021000      -4.99145000       1.45485000
