109
Properties=species:S:1:pos:R:3 pbc="F F F"
Ba      -0.03156100      -0.01859800       0.01233200
Si      -1.53075000      -4.42606000       1.26367000
Si      -4.59588000      -0.89122000      -1.25248000
Al      -3.06977000      -3.53452000      -1.25248000
Si      -3.06805000      -0.01012000      -3.74335000
Si      -1.54280000      -2.65193000      -3.74335000
Al      -3.07235000       0.00031000       3.74050000
Si       1.52319000      -4.42606000       1.26367000
Si      -1.53591000      -2.66088000       3.74050000
Si      -3.07149000       3.53217000       1.26367000
Si       3.06221000      -3.53452000      -1.25248000
Si      -1.52989000       4.41923000      -1.25248000
Si       1.53524000      -2.65193000      -3.74335000
Si      -1.52903000       2.65554000      -3.74335000
Si       1.52836000      -2.66088000       3.74050000
Si      -1.54022000       2.65405000       3.74050000
Si       4.59091000       0.88738000       1.26367000
Si       4.58832000      -0.89122000      -1.25248000
Si       3.06049000      -0.01012000      -3.74335000
Si       3.06480000       0.00031000       3.74050000
Si       3.06394000       3.53217000       1.26367000
Si       1.52233000       4.41923000      -1.25248000
Si       1.52147000       2.65554000      -3.74335000
Si       1.53266000       2.65405000       3.74050000
Si      -4.59846000       0.88738000       1.26367000
O        1.88815000       1.09013000       3.59448000
O        3.57694000      -0.03398000       5.26536000
O        2.49068000       3.51129000       2.76887000
O        4.30342000       4.55490000       1.17662000
O        1.90192000       4.00626000       0.25553000
O        2.50445000       5.59254000      -1.75514000
O        1.68329000       3.13858000      -2.21569000
O        4.27071000      -2.47005000      -1.30022000
O       -2.51372000      -1.45030000       3.32770000
O       -3.58450000      -0.03398000       5.26536000
O       -1.89570000       1.09013000       3.59448000
O       -0.00378000      -4.11596000       0.85929000
O       -1.79930000      -3.91917000       2.76887000
O       -4.42803000      -0.35600000       0.25553000
O       -1.79672000      -6.01085000       1.17662000
O       -2.52233000      -3.65677000       0.25553000
O       -6.10305000      -0.62734000      -1.75514000
O       -3.56728000      -0.11150000      -2.21569000
O        6.09550000      -0.62734000      -1.75514000
O        3.55973000      -0.11150000      -2.21569000
O        2.50359000       3.51577000      -4.68691000
O        1.75904000       3.11472000       5.26536000
O       -6.10391000       1.44943000       1.17662000
O       -2.51200000       5.59254000      -1.75514000
O       -1.69085000       3.13858000      -2.21569000
O       -0.00378000       4.93358000      -1.30022000
O        1.78917000      -3.93258000      -4.68691000
O        2.48896000      -1.44135000      -4.21513000
O       -4.27826000      -2.47005000      -1.30022000
O       -3.59483000      -4.97172000      -1.75514000
O       -1.88021000      -3.03359000      -2.21569000
O       -4.30408000       0.41030000      -4.68691000
O       -2.49651000      -1.44135000      -4.21513000
O       -1.90431000       1.09610000      -3.85849000
O       -1.79672000      -3.93258000      -4.68691000
O       -0.00464000      -2.19722000      -3.85849000
O       -4.29375000       0.40135000       2.76887000
O        1.79175000      -3.91917000       2.76887000
O        4.29653000       0.41030000      -4.68691000
O        1.89762000       1.09461000      -3.85849000
O       -2.51114000       3.51577000      -4.68691000
O       -0.00378000       2.87619000      -4.21513000
O        2.50531000      -1.45179000       3.32770000
O        1.81413000      -3.08726000       5.26536000
O       -0.00292000       2.89557000       3.32770000
O       -1.76659000       3.11472000       5.26536000
O        3.55887000       2.05472000       0.85929000
O        4.28620000       0.40135000       2.76887000
O        6.09636000       1.44943000       1.17662000
O        4.42048000      -0.35600000       0.25553000
O        1.78917000      -6.01085000       1.17662000
O        2.51478000      -3.65677000       0.25553000
O       -0.00378000      -2.18678000       3.59448000
O       -1.82168000      -3.08726000       5.26536000
O       -3.56642000       2.05472000       0.85929000
O       -2.49823000       3.51129000       2.76887000
O       -4.31097000       4.55490000       1.17662000
O       -1.90948000       4.00626000       0.25553000
O        3.58727000      -4.97172000      -1.75514000
O        1.87266000      -3.03359000      -2.21569000
H        3.88889000      -0.05486000       6.19415000
H        5.05821000       5.17770000       1.12360000
H        3.10205000       6.30648000      -2.06101000
H       -3.89645000      -0.05486000       6.19415000
H       -1.95868000      -6.97591000       1.12360000
H       -7.02015000      -0.46677000      -2.06101000
H        7.01259000      -0.46677000      -2.06101000
H        3.10108000       4.03911000      -5.26094000
H        1.89693000       3.39532000       6.19415000
H       -7.02067000       1.79170000       1.12360000
H       -3.10961000       6.30648000      -2.06101000
H        1.94364000      -4.71170000      -5.26094000
H       -3.91432000      -5.84623000      -2.06101000
H       -5.05606000       0.66607000      -5.26094000
H       -1.95120000      -4.71170000      -5.26094000
H        5.04850000       0.66607000      -5.26094000
H       -3.10864000       4.03911000      -5.26094000
H        1.98819000      -3.34698000       6.19415000
H       -1.90448000       3.39532000       6.19415000
H        7.01312000       1.79170000       1.12360000
H        1.95113000      -6.97591000       1.12360000
H       -1.99574000      -3.34698000       6.19415000
H       -5.06576000       5.17770000       1.12360000
H        3.90676000      -5.84623000      -2.06101000
