55
Properties=species:S:1:pos:R:3 pbc="F F F"
K        0.11798500      -0.00374900      -0.28929800
Al       1.54199000       0.46579000      -3.08182000
Si      -3.09862000      -1.20716000      -0.96761000
Si       1.54473000       2.88633000      -1.12484000
Si      -1.53807000      -0.46461000       3.07398000
Si       3.10254000       1.20834000       0.95978000
Si       3.10254000      -1.20716000      -0.96761000
Si      -1.53807000       0.46579000      -3.08182000
Si       1.54473000      -2.88515000       1.11700000
Si      -3.09862000       1.20834000       0.95978000
Si       1.54199000      -0.46461000       3.07398000
Si      -1.54081000       2.88633000      -1.12484000
Si      -1.54081000      -2.88515000       1.11700000
O        3.55251000       0.00059000      -0.00392000
O        2.00564000      -2.11486000      -0.21848000
O        4.38681000       2.10848000       1.32602000
O        0.00196000       0.00564000      -2.98933000
O        1.98376000       0.55278000      -4.62817000
O       -2.46537000      -0.60833000      -2.32159000
O        1.71432000       1.91055000      -2.39558000
O        2.46929000      -0.60833000      -2.32159000
O       -2.00172000      -2.11486000      -0.21848000
O       -4.38289000      -2.10730000      -1.33385000
O       -3.54859000       0.00059000      -0.00392000
O        2.00564000       2.11605000       0.21065000
O        0.00196000       3.32380000      -0.98796000
O        2.45561000       4.19620000      -1.33385000
O        0.00196000      -0.00445000       2.98150000
O       -1.97984000      -0.55159000       4.62033000
O       -1.71040000      -1.90937000       2.38774000
O       -2.46537000       0.60951000       2.31376000
O        2.46929000       0.60951000       2.31376000
O        4.38681000      -2.10730000      -1.33385000
O       -1.97984000       0.55278000      -4.62817000
O       -1.71040000       1.91055000      -2.39558000
O        1.71432000      -1.90937000       2.38774000
O        0.00196000      -3.32261000       0.98012000
O        2.45561000      -4.19502000       1.32602000
O       -2.00172000       2.11605000       0.21065000
O       -4.38289000       2.10848000       1.32602000
O        1.98376000      -0.55159000       4.62033000
O       -2.45169000       4.19620000      -1.33385000
O       -2.45169000      -4.19502000       1.32602000
H        5.16829000       2.65622000       1.54887000
H        2.25257000       0.60571000      -5.56909000
H       -5.16437000      -2.65504000      -1.55671000
H        3.01038000       4.99397000      -1.46115000
H       -2.24864000      -0.60452000       5.56126000
H        5.16829000      -2.65504000      -1.55671000
H       -2.24864000       0.60571000      -5.56909000
H        3.01038000      -4.99278000       1.45332000
H       -5.16437000       2.65622000       1.54887000
H        2.25257000      -0.60452000       5.56126000
H       -3.00646000       4.99397000      -1.46115000
H       -3.00646000      -4.99278000       1.45332000
