55
Properties=species:S:1:pos:R:3 pbc="F F F"
Cs      -0.13864800      -0.22942700      -0.27014800
Si       0.56709000       0.30581000       3.43307000
Si       0.56709000      -0.31184000      -3.43802000
Si      -2.88413000      -1.53734000       0.23964000
Si      -0.46641000       2.27347000      -2.15544000
Al      -1.20106000      -2.62853000      -2.15544000
Si      -1.20106000       2.62249000       2.15049000
Si      -0.46641000      -2.27951000       2.15049000
Si      -2.88413000       1.53131000      -0.24458000
Si       2.76276000      -0.95204000      -1.24303000
Si       1.21666000      -3.37069000      -0.24458000
Si       1.21666000       3.36466000       0.23964000
Si       2.76276000       0.94601000       1.23808000
O       -1.74894000       3.66172000       3.27900000
O       -2.43172000       2.19014000       1.17406000
O       -0.04097000      -3.35500000      -1.27705000
O       -0.59715000       1.29797000       2.87482000
O        0.85556000       0.63424000       4.99978000
O       -0.59715000      -1.30401000      -2.87977000
O        0.08147000      -1.24028000       3.27900000
O        1.93264000       0.52934000       2.57469000
O        0.85556000      -0.64028000      -5.00472000
O        0.08147000       1.23425000      -3.28395000
O        1.93264000      -0.53537000      -2.57963000
O       -4.11271000      -2.40206000       0.86992000
O       -2.43172000      -2.19617000      -1.17900000
O       -1.62650000      -1.55303000       1.27210000
O       -3.36975000      -0.00302000      -0.00247000
O       -1.07032000       3.59799000      -2.87977000
O        0.76425000       2.70583000      -1.17900000
O       -1.62650000       1.54700000      -1.27705000
O       -1.74894000      -3.66775000      -3.28395000
O       -0.04097000       3.34897000       1.27210000
O       -1.07032000      -3.60403000       2.87482000
O        0.76425000      -2.71186000       1.17406000
O       -4.11271000       2.39602000      -0.87487000
O        2.30619000      -0.00302000      -0.00247000
O        4.35451000      -0.76577000      -1.51916000
O        2.44524000      -2.50598000      -0.87487000
O        1.70228000      -4.90502000      -0.00247000
O        2.44524000       2.49994000       0.86992000
O        1.70228000       4.89898000      -0.00247000
O        4.35451000       0.75973000       1.51421000
H       -2.07854000       4.28691000       3.95790000
H        1.02936000       0.83213000       5.94372000
H        1.02936000      -0.83816000      -5.94867000
H       -4.85171000      -2.92219000       1.24904000
H       -1.43431000       4.39631000      -3.31634000
H       -2.07854000      -4.29294000      -3.96285000
H       -1.43431000      -4.40235000       3.31139000
H       -4.85171000       2.91616000      -1.25399000
H        5.31374000      -0.65351000      -1.68555000
H        1.99471000      -5.82894000       0.14332000
H        1.99471000       5.82291000      -0.14826000
H        5.31374000       0.64748000       1.68061000
