109
Properties=species:S:1:pos:R:3 pbc="F F F"
Sr       0.16689700      -0.15709100       0.12423600
Si      -2.16563000      -0.00238000       4.06531000
Si      -1.49875000       3.75273000      -2.93047000
Si       2.30971000       4.55905000      -0.09550000
Si      -4.55910000      -2.30977000      -0.09550000
Si      -4.50575000      -0.00238000       1.96915000
Al       1.50340000      -3.75749000      -2.93047000
Si      -2.30506000      -4.56380000      -0.09550000
Si       0.00232000       2.16557000       4.06531000
Si       1.50340000       3.75273000      -2.93047000
Si      -2.30506000       4.55905000      -0.09550000
Si       0.00231900       4.50570000       1.96915000
Si       0.00232000      -2.17033000       4.06531000
Si       3.75744000       1.49870000      -2.93047000
Si      -1.49875000      -3.75749000      -2.93047000
Si       2.30971000      -4.56380000      -0.09550000
Si       0.00232000      -4.51045000       1.96915000
Si      -3.75279000      -1.50345000      -2.93047000
Si      -4.55910000       2.30501000      -0.09550000
Si      -3.75279000       1.49870000      -2.93047000
Si       4.56375000      -2.30977000      -0.09550000
Al       2.17027000      -0.00238000       4.06531000
Si       3.75744000      -1.50345000      -2.93047000
Si       4.56375000       2.30501000      -0.09550000
Si       4.51040000      -0.00238000       1.96915000
O       -4.75068000       1.90246000      -4.12745000
O        4.51525000      -1.55195000      -1.51299000
O        4.15998000      -1.31188000       1.10148000
O        6.06482000      -2.83841000       0.15936000
O        3.57556000      -0.00238000       3.28068000
O        2.47461000      -0.00238000       5.64601000
O        4.75532000      -1.90721000      -4.12745000
O       -1.30718000       4.15528000       1.10148000
O       -6.06018000      -0.00238000       2.38724000
O        1.55190000      -4.51530000      -1.51299000
O       -4.15534000       1.30712000       1.10148000
O       -3.57091000      -0.00238000       3.28068000
O       -2.46996000      -0.00238000       5.64601000
O       -1.54725000       4.51055000      -1.51299000
O       -1.31203000      -1.31673000       3.69304000
O       -1.31203000       1.31197000       3.69304000
O       -1.90251000       4.75062000      -4.12745000
O        0.00232000       3.22409000      -3.18533000
O       -4.75068000      -1.90721000      -4.12745000
O       -3.22414000      -0.00238000      -3.18533000
O        4.15998000       1.30712000       1.10148000
O        6.06482000       2.83366000       0.15936000
O        6.06482000      -0.00238000       2.38724000
O       -2.83371000       6.06012000       0.15936000
O       -3.56970000       3.56965000      -0.12128000
O        0.00232100       6.06012000       2.38724000
O        0.00232000      -3.57562000       3.28068000
O        0.00232000      -2.47467000       5.64601000
O       -2.48815000       2.48810000      -2.90470000
O        1.55190000       4.51055000      -1.51299000
O        1.31182000       4.15528000       1.10148000
O        2.83836000       6.06012000       0.15936000
O        3.57435000       3.56965000      -0.12128000
O       -4.51060000      -1.55195000      -1.51299000
O       -4.15534000      -1.31188000       1.10148000
O       -6.06018000      -2.83841000       0.15936000
O       -3.56970000      -3.57440000      -0.12128000
O        1.90716000      -4.75538000      -4.12745000
O       -4.51060000       1.54720000      -1.51299000
O       -6.06018000       2.83366000       0.15936000
O        1.31667000      -1.31673000       3.69304000
O        4.51525000       1.54720000      -1.51299000
O        4.75532000       1.90246000      -4.12745000
O        3.22879000      -0.00238000      -3.18533000
O       -1.90251000      -4.75538000      -4.12745000
O       -2.48815000      -2.49285000      -2.90470000
O        1.31182000      -4.16004000       1.10148000
O        2.83836000      -6.06488000       0.15936000
O        3.57435000      -3.57440000      -0.12128000
O        0.00232000      -6.06488000       2.38724000
O        0.00232000      -3.22884000      -3.18533000
O        2.49280000      -2.49285000      -2.90470000
O       -1.54725000      -4.51530000      -1.51299000
O       -1.30718000      -4.16004000       1.10148000
O       -2.83371000      -6.06488000       0.15936000
O        0.00232000       3.57086000       3.28068000
O        0.00232000       2.46991000       5.64601000
O        1.31667000       1.31197000       3.69304000
O        1.90716000       4.75062000      -4.12745000
O        2.49280000       2.48810000      -2.90470000
H       -5.35815000       2.14825000      -4.85613000
H        6.97754000      -3.15986000       0.31432000
H        2.65989000      -0.00238000       6.60834000
H        5.36279000      -2.15301000      -4.85613000
H       -7.00654000      -0.00238000       2.64178000
H       -2.65524000      -0.00238000       6.60834000
H       -2.14831000       5.35809000      -4.85613000
H       -5.35815000      -2.15301000      -4.85613000
H        6.97754000       3.15510000       0.31432000
H        7.01119000      -0.00238000       2.64178000
H       -3.15516000       6.97284000       0.31432000
H        0.00232000       7.00649000       2.64178000
H        0.00232000      -2.65994000       6.60834000
H        3.15980000       6.97284000       0.31432000
H       -6.97290000      -3.15986000       0.31432000
H        2.15295000      -5.36285000      -4.85613000
H       -6.97290000       3.15510000       0.31432000
H        5.36279000       2.14825000      -4.85613000
H       -2.14831000      -5.36285000      -4.85613000
H        3.15980000      -6.97760000       0.31432000
H        0.00232000      -7.01124000       2.64178000
H       -3.15516000      -6.97760000       0.31432000
H        0.00232000       2.65519000       6.60834000
H        2.15295000       5.35809000      -4.85613000
