145
Properties=species:S:1:pos:R:3 pbc="F F F"
Ba       0.03283800       0.01437800       0.03285500
Si      -3.34543000       1.55644000       5.54043000
Si       3.75694000      -3.34815000       1.55916000
Si      -3.74857000       3.35108000      -1.55080000
Al       5.54043000       1.55644000       3.35379000
Si      -5.53206000      -1.55352000       3.35379000
Si       3.35379000      -1.55352000      -5.53206000
Si       1.55916000       3.35108000       3.75694000
Si      -1.55080000      -3.34815000      -3.74857000
Si       3.75694000      -3.34815000      -1.55080000
Si       3.35379000       1.55644000      -5.53206000
Si      -3.74857000       3.35108000       1.55916000
Si       5.54043000       1.55644000      -3.34543000
Si      -5.53206000       1.55644000      -3.34543000
Si      -3.34543000      -1.55352000       5.54043000
Si       1.55916000       3.35108000      -3.74857000
Si      -3.74857000      -3.34815000       1.55916000
Si      -1.55080000      -3.34815000       3.75694000
Si       5.54043000      -1.55352000       3.35379000
Al       3.35379000       1.55644000       5.54043000
Si      -5.53206000       1.55644000       3.35379000
Si      -3.34543000      -1.55352000      -5.53206000
Si       1.55916000      -3.34815000       3.75694000
Si       3.75694000       3.35108000      -1.55080000
Si      -1.55080000       3.35108000      -3.74857000
Si      -3.34543000       1.55644000      -5.53206000
Si      -3.74857000      -3.34815000      -1.55080000
Si       5.54043000      -1.55352000      -3.34543000
Si      -5.53206000      -1.55352000      -3.34543000
Si       1.55916000      -3.34815000      -3.74857000
Si       3.35379000      -1.55352000       5.54043000
Si       3.75694000       3.35108000       1.55916000
Si      -1.55080000       3.35108000       3.75694000
O       -6.92355000       2.36273000       3.44297000
O        1.70964000       4.74257000      -4.54371000
O        2.36545000       3.44025000      -2.35708000
O       -3.44390000      -3.06762000       0.00418000
O       -4.54371000      -4.73964000       1.70964000
O       -2.35708000      -3.43732000       2.36545000
O        0.00418000      -3.06762000       3.45226000
O       -1.70128000      -4.73964000       4.55208000
O       -2.14715000      -2.14987000      -4.64032000
O       -4.73692000      -1.70400000       4.74529000
O       -4.64032000      -2.14987000       2.15551000
O       -2.35708000      -3.43732000      -2.35708000
O        4.55208000      -4.73964000      -1.70128000
O        4.64868000      -2.14987000      -2.14715000
O        2.36545000      -3.43732000      -2.35708000
O        4.74529000       1.70692000      -4.73692000
O       -5.83674000       0.00146000       3.07327000
O       -3.06490000       0.00146000       5.84510000
O       -4.73692000       1.70692000       4.74529000
O        3.45226000      -3.06762000       0.00418000
O       -2.14715000       2.15280000       4.64868000
O       -3.43461000       2.36273000       6.93192000
O        4.55208000      -4.73964000       1.70964000
O        4.64868000      -2.14987000       2.15551000
O       -6.92355000       2.36273000      -3.43461000
O       -2.14715000      -2.14987000       4.64868000
O        1.70964000      -4.73964000      -4.54371000
O        3.07327000       0.00146000      -5.83674000
O        4.74529000      -1.70400000      -4.73692000
O        2.15551000      -2.14987000      -4.64032000
O        3.44297000      -2.35980000      -6.92355000
O        0.00418000       3.07055000       3.45226000
O        1.70964000       4.74257000       4.55208000
O        2.15551000       2.15280000       4.64868000
O        2.36545000       3.44025000       2.36545000
O        0.00418000      -3.06762000      -3.44390000
O       -1.70128000      -4.73964000      -4.54371000
O        3.44297000      -2.35980000       6.93192000
O        4.55208000       4.74257000       1.70964000
O       -1.70128000       4.74257000       4.55208000
O        2.36545000      -3.43732000       2.36545000
O       -3.44390000       3.07055000       0.00418000
O       -4.54371000       4.74257000      -1.70128000
O       -4.64032000       2.15280000      -2.14715000
O       -2.35708000       3.44025000      -2.35708000
O        5.84510000       0.00146000       3.07327000
O        4.74529000       1.70692000       4.74529000
O        4.64868000       2.15280000       2.15551000
O        6.93192000       2.36273000       3.44297000
O       -6.92355000      -2.35980000       3.44297000
O        1.70964000      -4.73964000       4.55208000
O        2.15551000      -2.14987000       4.64868000
O        3.45226000       3.07055000       0.00418000
O       -3.06490000       0.00146000      -5.83674000
O       -4.73692000      -1.70400000      -4.73692000
O       -3.43461000      -2.35980000      -6.92355000
O        4.74529000      -1.70400000       4.74529000
O        6.93192000      -2.35980000       3.44297000
O        3.07327000       0.00146000       5.84510000
O        3.44297000       2.36273000       6.93192000
O       -3.43461000      -2.35980000       6.93192000
O        0.00418000       3.07055000      -3.44390000
O        2.15551000       2.15280000      -4.64032000
O        3.44297000       2.36273000      -6.92355000
O       -4.54371000       4.74257000       1.70964000
O       -4.64032000       2.15280000       2.15551000
O       -2.35708000       3.44025000       2.36545000
O        5.84510000       0.00146000      -3.06490000
O        4.64868000       2.15280000      -2.14715000
O        6.93192000       2.36273000      -3.43461000
O       -5.83674000       0.00146000      -3.06490000
O       -4.73692000       1.70692000      -4.73692000
O        4.55208000       4.74257000      -1.70128000
O       -1.70128000       4.74257000      -4.54371000
O       -2.14715000       2.15280000      -4.64032000
O       -3.43461000       2.36273000      -6.92355000
O       -4.54371000      -4.73964000      -1.70128000
O       -4.64032000      -2.14987000      -2.14715000
O        6.93192000      -2.35980000      -3.43461000
O       -6.92355000      -2.35980000      -3.43461000
H       -7.77019000       2.85330000       3.49723000
H        1.80126000       5.58972000      -5.02780000
H       -5.02780000      -5.58679000       1.80126000
H       -1.79289000      -5.58679000       5.03616000
H        5.03616000      -5.58679000      -1.79289000
H       -3.48886000       2.85330000       7.77855000
H        5.03616000      -5.58679000       1.80126000
H       -7.77019000       2.85330000      -3.48886000
H        1.80126000      -5.58679000      -5.02780000
H        3.49723000      -2.85037000      -7.77019000
H        1.80126000       5.58972000       5.03616000
H       -1.79289000      -5.58679000      -5.02780000
H        3.49723000      -2.85037000       7.77855000
H        5.03616000       5.58972000       1.80126000
H       -1.79289000       5.58972000       5.03616000
H       -5.02780000       5.58972000      -1.79289000
H        7.77855000       2.85330000       3.49723000
H       -7.77019000      -2.85037000       3.49723000
H        1.80126000      -5.58679000       5.03616000
H       -3.48886000      -2.85037000      -7.77019000
H        7.77855000      -2.85037000       3.49723000
H        3.49723000       2.85330000       7.77855000
H       -3.48886000      -2.85037000       7.77855000
H        3.49723000       2.85330000      -7.77019000
H       -5.02780000       5.58972000       1.80126000
H        7.77855000       2.85330000      -3.48886000
H        5.03616000       5.58972000      -1.79289000
H       -1.79289000       5.58972000      -5.02780000
H       -3.48886000       2.85330000      -7.77019000
H       -5.02780000      -5.58679000      -1.79289000
H        7.77855000      -2.85037000      -3.48886000
H       -7.77019000      -2.85037000      -3.48886000
