109
Properties=species:S:1:pos:R:3 pbc="F F F"
Sr      -0.39119300       0.47358300      -0.15335800
Si      -2.16985000       0.00238000       4.06398000
Si      -1.50298000       3.75749000      -2.93180000
Si       2.30548000       4.56380000      -0.09683000
Si      -4.56333000      -2.30501000      -0.09683000
Al      -4.50998000       0.00238000       1.96782000
Si       1.49917000      -3.75274000      -2.93180000
Si      -2.30929000      -4.55905000      -0.09683000
Si      -0.00190000       2.17033000       4.06398000
Al       1.49917000       3.75749000      -2.93180000
Si      -2.30929000       4.56380000      -0.09683000
Si      -0.00190000       4.51045000       1.96782000
Si      -0.00190000      -2.16557000       4.06398000
Si       3.75321000       1.50345000      -2.93180000
Si      -1.50298000      -3.75274000      -2.93180000
Si       2.30548000      -4.55905000      -0.09683000
Si      -0.00190000      -4.50570000       1.96782000
Si      -3.75702000      -1.49870000      -2.93180000
Si      -4.56333000       2.30977000      -0.09683000
Si      -3.75702000       1.50345000      -2.93180000
Si       4.55952000      -2.30501000      -0.09683000
Si       2.16605000       0.00238000       4.06398000
Si       3.75321000      -1.49870000      -2.93180000
Si       4.55952000       2.30977000      -0.09683000
Si       4.50617000       0.00238000       1.96782000
O       -4.75490000       1.90721000      -4.12878000
O        4.51102000      -1.54720000      -1.51431000
O        4.15576000      -1.30712000       1.10015000
O        6.06060000      -2.83366000       0.15803000
O        3.57133000       0.00238000       3.27935000
O        2.47038000       0.00238000       5.64469000
O        4.75110000      -1.90246000      -4.12878000
O       -1.31140000       4.16004000       1.10015000
O       -6.06440000       0.00238000       2.38591000
O        1.54767000      -4.51055000      -1.51431000
O       -4.15957000       1.31188000       1.10015000
O       -3.57514000       0.00238000       3.27935000
O       -2.47419000       0.00238000       5.64469000
O       -1.55148000       4.51530000      -1.51431000
O       -1.31625000      -1.31197000       3.69171000
O       -1.31625000       1.31673000       3.69171000
O       -1.90674000       4.75538000      -4.12878000
O       -0.00190000       3.22884000      -3.18666000
O       -4.75490000      -1.90246000      -4.12878000
O       -3.22837000       0.00238000      -3.18666000
O        4.15576000       1.31188000       1.10015000
O        6.06060000       2.83841000       0.15803000
O        6.06060000       0.00238000       2.38591000
O       -2.83794000       6.06488000       0.15803000
O       -3.57393000       3.57440000      -0.12260000
O       -0.00190000       6.06488000       2.38591000
O       -0.00190000      -3.57086000       3.27935000
O       -0.00190000      -2.46991000       5.64469000
O       -2.49238000       2.49285000      -2.90602000
O        1.54767000       4.51530000      -1.51431000
O        1.30760000       4.16004000       1.10015000
O        2.83413000       6.06488000       0.15803000
O        3.57012000       3.57440000      -0.12260000
O       -4.51483000      -1.54720000      -1.51431000
O       -4.15957000      -1.30712000       1.10015000
O       -6.06440000      -2.83366000       0.15803000
O       -3.57393000      -3.56965000      -0.12260000
O        1.90293000      -4.75062000      -4.12878000
O       -4.51483000       1.55195000      -1.51431000
O       -6.06440000       2.83841000       0.15803000
O        1.31245000      -1.31197000       3.69171000
O        4.51102000       1.55195000      -1.51431000
O        4.75110000       1.90721000      -4.12878000
O        3.22456000       0.00238000      -3.18666000
O       -1.90674000      -4.75062000      -4.12878000
O       -2.49238000      -2.48810000      -2.90602000
O        1.30760000      -4.15529000       1.10015000
O        2.83413000      -6.06012000       0.15803000
O        3.57012000      -3.56965000      -0.12260000
O       -0.00190000      -6.06012000       2.38591000
O       -0.00190000      -3.22409000      -3.18666000
O        2.48857000      -2.48810000      -2.90602000
O       -1.55148000      -4.51055000      -1.51431000
O       -1.31140000      -4.15529000       1.10015000
O       -2.83794000      -6.06012000       0.15803000
O       -0.00190000       3.57561000       3.27935000
O       -0.00190000       2.47466000       5.64469000
O        1.31245000       1.31673000       3.69171000
O        1.90293000       4.75538000      -4.12878000
O        2.48857000       2.49285000      -2.90602000
H       -5.36237000       2.15301000      -4.85745000
H        6.97332000      -3.15510000       0.31300000
H        2.65566000       0.00238000       6.60701000
H        5.35857000      -2.14825000      -4.85745000
H       -7.01077000       0.00238000       2.64045000
H       -2.65947000       0.00238000       6.60701000
H       -2.15253000       5.36285000      -4.85745000
H       -5.36237000      -2.14825000      -4.85745000
H        6.97332000       3.15986000       0.31300000
H        7.00696000       0.00238000       2.64045000
H       -3.15938000       6.97760000       0.31300000
H       -0.00190000       7.01124000       2.64045000
H       -0.00190000      -2.65519000       6.60701000
H        3.15558000       6.97760000       0.31300000
H       -6.97712000      -3.15510000       0.31300000
H        2.14873000      -5.35809000      -4.85745000
H       -6.97712000       3.15986000       0.31300000
H        5.35857000       2.15301000      -4.85745000
H       -2.15253000      -5.35809000      -4.85745000
H        3.15558000      -6.97284000       0.31300000
H       -0.00190000      -7.00649000       2.64045000
H       -3.15938000      -6.97284000       0.31300000
H       -0.00190000       2.65994000       6.60701000
H        2.14873000       5.36285000      -4.85745000
