55
Properties=species:S:1:pos:R:3 pbc="F F F"
K       -0.15099100      -0.34292600      -0.38278300
Si       0.56657500       0.30546400       3.43287100
Si       0.56692100      -0.31216700      -3.43830000
Si      -2.88430600      -1.53766900       0.23937000
Si      -0.46657600       2.27315000      -2.15571000
Al      -1.20123900      -2.62885300      -2.15572000
Si      -1.20117700       2.62215000       2.15028200
Si      -0.46658400      -2.27982800       2.15023000
Si      -2.88430700       1.53097700      -0.24485100
Si       2.76259600      -0.95237100      -1.24330100
Si       1.21649400      -3.37102100      -0.24485300
Si       1.21649300       3.36433000       0.23937300
Si       2.76259400       0.94568100       1.23782000
O       -1.74917400       3.66140800       3.27868700
O       -2.43189100       2.18981000       1.17378900
O       -0.04114200      -3.35533000      -1.27730700
O       -0.59732500       1.29764600       2.87454000
O        0.85562900       0.63393100       4.99946200
O       -0.59731000      -1.30432300      -2.88003200
O        0.08130800      -1.24061100       3.27872700
O        1.93247500       0.52901000       2.57441900
O        0.85538000      -0.64060000      -5.00499000
O        0.08129900       1.23392000      -3.28422000
O        1.93247500      -0.53570000      -2.57990300
O       -4.11288000      -2.40237900       0.86965000
O       -2.43189000      -2.19650000      -1.17927000
O       -1.62666400      -1.55335000       1.27182600
O       -3.36992900      -0.00334000      -0.00274000
O       -1.07049200       3.59766900      -2.88003900
O        0.76407300       2.70550300      -1.17927200
O       -1.62666700       1.54666900      -1.27731100
O       -1.74912000      -3.66808000      -3.28422000
O       -0.04114500       3.34865000       1.27182400
O       -1.07049000      -3.60435000       2.87455000
O        0.76407300      -2.71219200       1.17379000
O       -4.11288000       2.39570000      -0.87513000
O        2.30602600      -0.00333900      -0.00274100
O        4.35434000      -0.76608900      -1.51942000
O        2.44506000      -2.50630000      -0.87513000
O        1.70211000      -4.90534000      -0.00274000
O        2.44505900       2.49962000       0.86965100
O        1.70211000       4.89866000      -0.00274000
O        4.35434000       0.75941000       1.51394000
H       -2.07871100       4.28657600       3.95763800
H        1.02918700       0.83180600       5.94345900
H        1.02919000      -0.83849000      -5.94894000
H       -4.85189000      -2.92252000       1.24877000
H       -1.43448900       4.39599000      -3.31660100
H       -2.07872000      -4.29327000      -3.96312000
H       -1.43449000      -4.40267000       3.31112000
H       -4.85189000       2.91583000      -1.25426000
H        5.31356000      -0.65384000      -1.68582000
H        1.99453000      -5.82926000       0.14305000
H        1.99453000       5.82258000      -0.14853000
H        5.31356000       0.64715000       1.68034000
