55
Properties=species:S:1:pos:R:3 pbc="F F F"
K       -0.09500800       0.23342700       0.41027700
Al       0.56917000       0.30922000       3.43992000
Si       0.56920700      -0.30841900      -3.43116200
Si      -2.88205900      -1.53392700       0.24647900
Si      -0.46432500       2.27688700      -2.14859200
Si      -1.19899000      -2.62512100      -2.14858800
Si      -1.19898800       2.62590400       2.15733900
Si      -0.46432900      -2.27610700       2.15734400
Si      -2.88205900       1.53472100      -0.23773200
Si       2.76484200      -0.94863000      -1.23617900
Si       1.21874200      -3.36728200      -0.23772800
Si       1.21874000       3.36807400       0.24647900
Si       2.76484600       0.94941700       1.24492600
O       -1.74687300       3.66512900       3.28584900
O       -2.42963800       2.19355100       1.18089900
O       -0.03889000      -3.35158900      -1.27020100
O       -0.59507600       1.30138300       2.88167300
O        0.85764000       0.63765000       5.00662000
O       -0.59507300      -1.30060100      -2.87292000
O        0.08355100      -1.23686900       3.28584900
O        1.93472400       0.53274900       2.58153100
O        0.85761500      -0.63688000      -4.99788300
O        0.08354700       1.23765800      -3.27710100
O        1.93471800      -0.53196100      -2.57277900
O       -4.11062700      -2.39865400       0.87676800
O       -2.42963900      -2.19275900      -1.17215000
O       -1.62442900      -1.54962600       1.27895200
O       -3.36767800       0.00039000       0.00437000
O       -1.06824200       3.60139600      -2.87292200
O        0.76632200       2.70924400      -1.17215300
O       -1.62442500       1.55041500      -1.27019900
O       -1.74687000      -3.66434000      -3.27710000
O       -0.03888800       3.35237900       1.27895200
O       -1.06824000      -3.60061900       2.88167000
O        0.76632200      -2.70845500       1.18090100
O       -4.11062900       2.39942900      -0.86802000
O        2.30827700       0.00039000       0.00436900
O        4.35658900      -0.76236000      -1.51231000
O        2.44731900      -2.50256900      -0.86802100
O        1.70436000      -4.90160900       0.00437000
O        2.44731800       2.50335000       0.87677100
O        1.70435900       4.90238900       0.00437000
O        4.35658900       0.76313900       1.52106000
H       -2.07646000       4.29031900       3.96475000
H        1.03144000       0.83554000       5.95057000
H        1.03144100      -0.83474700      -5.94182100
H       -4.84963900      -2.91877900       1.25589100
H       -1.43223900       4.39972000      -3.30948800
H       -2.07646000      -4.28953000      -3.95600000
H       -1.43224000      -4.39893900       3.31823900
H       -4.84963900       2.91957000      -1.24713900
H        5.31582000      -0.65010000      -1.67871000
H        1.99678000      -5.82552900       0.15016000
H        1.99678000       5.82631900      -0.14142000
H        5.31581900       0.65089100       1.68745000
