109
Properties=species:S:1:pos:R:3 pbc="F F F"
Sr      -0.17055300       0.03775300       0.12560200
Si      -2.17033000       0.00042000       4.06531000
Si      -1.50345000       3.75553000      -2.93047000
Si       2.30501000       4.56185000      -0.09550000
Si      -4.56380000      -2.30697000      -0.09550000
Si      -4.51045000       0.00041900       1.96915000
Si       1.49870000      -3.75469000      -2.93047000
Si      -2.30976000      -4.56100000      -0.09550000
Al      -0.00238000       2.16837000       4.06531000
Si       1.49870000       3.75553000      -2.93047000
Si      -2.30976000       4.56185000      -0.09550000
Si      -0.00238000       4.50850000       1.96915000
Si      -0.00238000      -2.16753000       4.06531000
Si       3.75274000       1.50150000      -2.93047000
Si      -1.50345000      -3.75469000      -2.93047000
Si       2.30501000      -4.56100000      -0.09550000
Si      -0.00238000      -4.50765000       1.96915000
Al      -3.75749000      -1.50065000      -2.93047000
Si      -4.56380000       2.30781000      -0.09550000
Si      -3.75749000       1.50150000      -2.93047000
Si       4.55905000      -2.30697000      -0.09550000
Si       2.16557000       0.00042000       4.06531000
Si       3.75274000      -1.50065000      -2.93047000
Si       4.55905000       2.30781000      -0.09550000
Si       4.50570000       0.00042000       1.96915000
O       -4.75538000       1.90526000      -4.12745000
O        4.51055000      -1.54915000      -1.51299000
O        4.15528000      -1.30908000       1.10148000
O        6.06012000      -2.83561000       0.15936000
O        3.57086000       0.00042000       3.28068000
O        2.46991000       0.00042000       5.64601000
O        4.75062000      -1.90441000      -4.12745000
O       -1.31188000       4.15808000       1.10148000
O       -6.06488000       0.00042100       2.38724000
O        1.54720000      -4.51250000      -1.51299000
O       -4.16004000       1.30992000       1.10148000
O       -3.57561000       0.00042000       3.28068000
O       -2.47466000       0.00042000       5.64601000
O       -1.55195000       4.51335000      -1.51299000
O       -1.31673000      -1.31393000       3.69304000
O       -1.31673000       1.31477000       3.69304000
O       -1.90721000       4.75342000      -4.12745000
O       -0.00238000       3.22689000      -3.18533000
O       -4.75538000      -1.90441000      -4.12745000
O       -3.22884000       0.00042000      -3.18533000
O        4.15528000       1.30992000       1.10148000
O        6.06012000       2.83646000       0.15936000
O        6.06012000       0.00042000       2.38724000
O       -2.83841000       6.06292000       0.15936000
O       -3.57440000       3.57245000      -0.12128000
O       -0.00238000       6.06292000       2.38724000
O       -0.00238000      -3.57282000       3.28068000
O       -0.00238000      -2.47187000       5.64601000
O       -2.49285000       2.49090000      -2.90470000
O        1.54720000       4.51335000      -1.51299000
O        1.30712000       4.15808000       1.10148000
O        2.83366000       6.06292000       0.15936000
O        3.56965000       3.57245000      -0.12128000
O       -4.51530000      -1.54915000      -1.51299000
O       -4.16004000      -1.30908000       1.10148000
O       -6.06488000      -2.83561000       0.15936000
O       -3.57440000      -3.57160000      -0.12128000
O        1.90246000      -4.75258000      -4.12745000
O       -4.51530000       1.55000000      -1.51299000
O       -6.06488000       2.83646000       0.15936000
O        1.31197000      -1.31393000       3.69304000
O        4.51055000       1.55000000      -1.51299000
O        4.75062000       1.90526000      -4.12745000
O        3.22409000       0.00042000      -3.18533000
O       -1.90721000      -4.75258000      -4.12745000
O       -2.49285000      -2.49005000      -2.90470000
O        1.30712000      -4.15724000       1.10148000
O        2.83366000      -6.06208000       0.15936000
O        3.56965000      -3.57160000      -0.12128000
O       -0.00238000      -6.06208000       2.38724000
O       -0.00238000      -3.22604000      -3.18533000
O        2.48810000      -2.49005000      -2.90470000
O       -1.55195000      -4.51250000      -1.51299000
O       -1.31188000      -4.15724000       1.10148000
O       -2.83841000      -6.06208000       0.15936000
O       -0.00238000       3.57366000       3.28068000
O       -0.00238000       2.47271000       5.64601000
O        1.31197000       1.31477000       3.69304000
O        1.90246000       4.75342000      -4.12745000
O        2.48810000       2.49090000      -2.90470000
H       -5.36285000       2.15105000      -4.85613000
H        6.97284000      -3.15706000       0.31432000
H        2.65519000       0.00042000       6.60834000
H        5.35809000      -2.15021000      -4.85613000
H       -7.01124000       0.00042000       2.64178000
H       -2.65994000       0.00042000       6.60834000
H       -2.15301000       5.36089000      -4.85613000
H       -5.36285000      -2.15021000      -4.85613000
H        6.97284000       3.15790000       0.31432000
H        7.00649000       0.00042000       2.64178000
H       -3.15986000       6.97564000       0.31432000
H       -0.00238000       7.00929000       2.64178000
H       -0.00238000      -2.65714000       6.60834000
H        3.15510000       6.97564000       0.31432000
H       -6.97760000      -3.15706000       0.31432000
H        2.14825000      -5.36005000      -4.85613000
H       -6.97760000       3.15790000       0.31432000
H        5.35809000       2.15105000      -4.85613000
H       -2.15301000      -5.36005000      -4.85613000
H        3.15510000      -6.97480000       0.31432000
H       -0.00238000      -7.00844000       2.64178000
H       -3.15986000      -6.97480000       0.31432000
H       -0.00238000       2.65799000       6.60834000
H        2.14825000       5.36089000      -4.85613000
