145
Properties=species:S:1:pos:R:3 pbc="F F F"
Ba       0.03594100      -0.02238900      -0.01355700
Si      -3.34628000       1.55413000       5.53605000
Si       3.75609000      -3.35046000       1.55479000
Si      -3.74942000       3.34877000      -1.55517000
Al       5.53958000       1.55413000       3.34942000
Si      -5.53291000      -1.55582000       3.34942000
Si       3.35295000      -1.55582000      -5.53643000
Si       1.55832000       3.34877000       3.75257000
Si      -1.55164000      -3.35046000      -3.75295000
Si       3.75609000      -3.35046000      -1.55517000
Si       3.35295000       1.55413000      -5.53643000
Si      -3.74942000       3.34877000       1.55479000
Si       5.53958000       1.55413000      -3.34980000
Si      -5.53291000       1.55413000      -3.34980000
Si      -3.34628000      -1.55582000       5.53605000
Si       1.55832000       3.34877000      -3.75295000
Si      -3.74942000      -3.35046000       1.55479000
Si      -1.55164000      -3.35046000       3.75257000
Si       5.53958000      -1.55582000       3.34942000
Si       3.35295000       1.55413000       5.53605000
Si      -5.53291000       1.55413000       3.34942000
Si      -3.34628000      -1.55582000      -5.53643000
Si       1.55832000      -3.35046000       3.75257000
Si       3.75609000       3.34877000      -1.55517000
Si      -1.55164000       3.34877000      -3.75295000
Si      -3.34628000       1.55413000      -5.53643000
Si      -3.74942000      -3.35046000      -1.55517000
Si       5.53958000      -1.55582000      -3.34980000
Si      -5.53291000      -1.55582000      -3.34980000
Al       1.55832000      -3.35046000      -3.75295000
Si       3.35295000      -1.55582000       5.53605000
Si       3.75609000       3.34877000       1.55479000
Si      -1.55164000       3.34877000       3.75257000
O       -6.92440000       2.36042000       3.43860000
O        1.70880000       4.74026000      -4.54808000
O        2.36460000       3.43794000      -2.36145000
O       -3.44474000      -3.06993000      -0.00019000
O       -4.54456000      -4.74195000       1.70527000
O       -2.35793000      -3.43963000       2.36107000
O        0.00334000      -3.06993000       3.44789000
O       -1.70212000      -4.74195000       4.54770000
O       -2.14800000      -2.15218000      -4.64469000
O       -4.73777000      -1.70630000       4.74092000
O       -4.64116000      -2.15218000       2.15114000
O       -2.35793000      -3.43963000      -2.36145000
O        4.55123000      -4.74195000      -1.70565000
O        4.64784000      -2.15218000      -2.15152000
O        2.36460000      -3.43963000      -2.36145000
O        4.74444000       1.70462000      -4.74130000
O       -5.83759000      -0.00084000       3.06890000
O       -3.06575000      -0.00084000       5.84073000
O       -4.73777000       1.70462000       4.74092000
O        3.45141000      -3.06993000      -0.00019000
O       -2.14800000       2.15049000       4.64431000
O       -3.43545000       2.36042000       6.92755000
O        4.55123000      -4.74195000       1.70527000
O        4.64784000      -2.15218000       2.15114000
O       -6.92440000       2.36042000      -3.43898000
O       -2.14800000      -2.15218000       4.64431000
O        1.70880000      -4.74195000      -4.54808000
O        3.07242000      -0.00084000      -5.84111000
O        4.74444000      -1.70630000      -4.74130000
O        2.15467000      -2.15218000      -4.64469000
O        3.44212000      -2.36211000      -6.92793000
O        0.00334000       3.06824000       3.44789000
O        1.70880000       4.74026000       4.54770000
O        2.15467000       2.15049000       4.64431000
O        2.36460000       3.43794000       2.36107000
O        0.00334000      -3.06993000      -3.44827000
O       -1.70212000      -4.74195000      -4.54808000
O        3.44212000      -2.36211000       6.92755000
O        4.55123000       4.74026000       1.70527000
O       -1.70212000       4.74026000       4.54770000
O        2.36460000      -3.43963000       2.36107000
O       -3.44474000       3.06824000      -0.00019000
O       -4.54456000       4.74026000      -1.70565000
O       -4.64116000       2.15049000      -2.15152000
O       -2.35793000       3.43794000      -2.36145000
O        5.84426000      -0.00084000       3.06890000
O        4.74444000       1.70462000       4.74092000
O        4.64784000       2.15049000       2.15114000
O        6.93107000       2.36042000       3.43860000
O       -6.92440000      -2.36211000       3.43860000
O        1.70880000      -4.74195000       4.54770000
O        2.15467000      -2.15218000       4.64431000
O        3.45141000       3.06824000      -0.00019000
O       -3.06575000      -0.00084000      -5.84111000
O       -4.73777000      -1.70630000      -4.74130000
O       -3.43545000      -2.36211000      -6.92793000
O        4.74444000      -1.70630000       4.74092000
O        6.93107000      -2.36211000       3.43860000
O        3.07242000      -0.00084000       5.84073000
O        3.44212000       2.36042000       6.92755000
O       -3.43545000      -2.36211000       6.92755000
O        0.00334000       3.06824000      -3.44827000
O        2.15467000       2.15049000      -4.64469000
O        3.44212000       2.36042000      -6.92793000
O       -4.54456000       4.74026000       1.70527000
O       -4.64116000       2.15049000       2.15114000
O       -2.35793000       3.43794000       2.36107000
O        5.84426000      -0.00084000      -3.06928000
O        4.64784000       2.15049000      -2.15152000
O        6.93107000       2.36042000      -3.43898000
O       -5.83759000      -0.00084000      -3.06928000
O       -4.73777000       1.70462000      -4.74130000
O        4.55123000       4.74026000      -1.70565000
O       -1.70212000       4.74026000      -4.54808000
O       -2.14800000       2.15049000      -4.64469000
O       -3.43545000       2.36042000      -6.92793000
O       -4.54456000      -4.74195000      -1.70565000
O       -4.64116000      -2.15218000      -2.15152000
O        6.93107000      -2.36211000      -3.43898000
O       -6.92440000      -2.36211000      -3.43898000
H       -7.77104000       2.85099000       3.49286000
H        1.80041000       5.58741000      -5.03217000
H       -5.02864000      -5.58910000       1.79689000
H       -1.79374000      -5.58910000       5.03179000
H        5.03532000      -5.58910000      -1.79726000
H       -3.48971000       2.85099000       7.77418000
H        5.03532000      -5.58910000       1.79689000
H       -7.77104000       2.85099000      -3.49323000
H        1.80041000      -5.58910000      -5.03217000
H        3.49638000      -2.85268000      -7.77456000
H        1.80041000       5.58741000       5.03179000
H       -1.79374000      -5.58910000      -5.03217000
H        3.49638000      -2.85268000       7.77418000
H        5.03532000       5.58741000       1.79689000
H       -1.79374000       5.58741000       5.03179000
H       -5.02864000       5.58741000      -1.79726000
H        7.77771000       2.85099000       3.49286000
H       -7.77104000      -2.85268000       3.49286000
H        1.80041000      -5.58910000       5.03179000
H       -3.48971000      -2.85268000      -7.77456000
H        7.77771000      -2.85268000       3.49286000
H        3.49638000       2.85099000       7.77418000
H       -3.48971000      -2.85268000       7.77418000
H        3.49638000       2.85099000      -7.77456000
H       -5.02864000       5.58741000       1.79689000
H        7.77771000       2.85099000      -3.49323000
H        5.03532000       5.58741000      -1.79726000
H       -1.79374000       5.58741000      -5.03217000
H       -3.48971000       2.85099000      -7.77456000
H       -5.02864000      -5.58910000      -1.79726000
H        7.77771000      -2.85268000      -3.49323000
H       -7.77104000      -2.85268000      -3.49323000
