145
Properties=species:S:1:pos:R:3 pbc="F F F"
Rb      -0.22759200       0.12134600       0.35009900
Al      -3.35122000       1.55573000       5.53891000
Si       3.75114000      -3.34887000       1.55764000
Si      -3.75437000       3.35036000      -1.55232000
Si       5.53463000       1.55573000       3.35228000
Si      -5.53786000      -1.55423000       3.35228000
Si       3.34800000      -1.55423000      -5.53358000
Si       1.55337000       3.35036000       3.75542000
Si      -1.55659000      -3.34887000      -3.75009000
Si       3.75114000      -3.34887000      -1.55232000
Si       3.34800000       1.55573000      -5.53358000
Si      -3.75437000       3.35036000       1.55764000
Si       5.53463000       1.55573000      -3.34695000
Si      -5.53786000       1.55573000      -3.34695000
Si      -3.35122000      -1.55423000       5.53891000
Si       1.55337000       3.35036000      -3.75009000
Si      -3.75437000      -3.34887000       1.55764000
Si      -1.55659000      -3.34887000       3.75542000
Si       5.53463000      -1.55423000       3.35228000
Si       3.34800000       1.55573000       5.53891000
Si      -5.53786000       1.55573000       3.35228000
Si      -3.35122000      -1.55423000      -5.53358000
Si       1.55337000      -3.34887000       3.75542000
Si       3.75114000       3.35036000      -1.55232000
Si      -1.55659000       3.35036000      -3.75009000
Si      -3.35122000       1.55573000      -5.53358000
Si      -3.75437000      -3.34887000      -1.55232000
Si       5.53463000      -1.55423000      -3.34695000
Si      -5.53786000      -1.55423000      -3.34695000
Si       1.55337000      -3.34887000      -3.75009000
Si       3.34800000      -1.55423000       5.53891000
Si       3.75114000       3.35036000       1.55764000
Si      -1.55659000       3.35036000       3.75542000
O       -6.92935000       2.36201000       3.44145000
O        1.70385000       4.74185000      -4.54523000
O        2.35965000       3.43954000      -2.35860000
O       -3.44969000      -3.06834000       0.00266000
O       -4.54951000      -4.74036000       1.70812000
O       -2.36288000      -3.43804000       2.36393000
O       -0.00161000      -3.06834000       3.45074000
O       -1.70707000      -4.74036000       4.55056000
O       -2.15294000      -2.15058000      -4.64184000
O       -4.74272000      -1.70471000       4.74377000
O       -4.64611000      -2.15058000       2.15399000
O       -2.36288000      -3.43804000      -2.35860000
O        4.54628000      -4.74036000      -1.70280000
O        4.64289000      -2.15058000      -2.14867000
O        2.35965000      -3.43804000      -2.35860000
O        4.73949000       1.70621000      -4.73844000
O       -5.84253000       0.00075000       3.07175000
O       -3.07070000       0.00075000       5.84359000
O       -4.74272000       1.70621000       4.74377000
O        3.44647000      -3.06834000       0.00266000
O       -2.15294000       2.15208000       4.64716000
O       -3.44040000       2.36201000       6.93040000
O        4.54628000      -4.74036000       1.70812000
O        4.64289000      -2.15058000       2.15399000
O       -6.92935000       2.36201000      -3.43613000
O       -2.15294000      -2.15058000       4.64716000
O        1.70385000      -4.74036000      -4.54523000
O        3.06747000       0.00075000      -5.83826000
O        4.73949000      -1.70471000      -4.73844000
O        2.14972000      -2.15058000      -4.64184000
O        3.43718000      -2.36052000      -6.92507000
O       -0.00161000       3.06983000       3.45074000
O        1.70385000       4.74185000       4.55056000
O        2.14972000       2.15208000       4.64716000
O        2.35965000       3.43954000       2.36393000
O       -0.00161000      -3.06834000      -3.44541000
O       -1.70707000      -4.74036000      -4.54523000
O        3.43718000      -2.36052000       6.93040000
O        4.54628000       4.74185000       1.70812000
O       -1.70707000       4.74185000       4.55056000
O        2.35965000      -3.43804000       2.36393000
O       -3.44969000       3.06983000       0.00266000
O       -4.54951000       4.74185000      -1.70280000
O       -4.64611000       2.15208000      -2.14867000
O       -2.36288000       3.43954000      -2.35860000
O        5.83931000       0.00075000       3.07175000
O        4.73949000       1.70621000       4.74377000
O        4.64289000       2.15208000       2.15399000
O        6.92612000       2.36201000       3.44145000
O       -6.92935000      -2.36052000       3.44145000
O        1.70385000      -4.74036000       4.55056000
O        2.14972000      -2.15058000       4.64716000
O        3.44647000       3.06983000       0.00266000
O       -3.07070000       0.00075000      -5.83826000
O       -4.74272000      -1.70471000      -4.73844000
O       -3.44040000      -2.36052000      -6.92507000
O        4.73949000      -1.70471000       4.74377000
O        6.92612000      -2.36052000       3.44145000
O        3.06747000       0.00075000       5.84359000
O        3.43718000       2.36201000       6.93040000
O       -3.44040000      -2.36052000       6.93040000
O       -0.00161000       3.06983000      -3.44541000
O        2.14972000       2.15208000      -4.64184000
O        3.43718000       2.36201000      -6.92507000
O       -4.54951000       4.74185000       1.70812000
O       -4.64611000       2.15208000       2.15399000
O       -2.36288000       3.43954000       2.36393000
O        5.83931000       0.00075000      -3.06642000
O        4.64289000       2.15208000      -2.14867000
O        6.92612000       2.36201000      -3.43613000
O       -5.84253000       0.00075000      -3.06642000
O       -4.74272000       1.70621000      -4.73844000
O        4.54628000       4.74185000      -1.70280000
O       -1.70707000       4.74185000      -4.54523000
O       -2.15294000       2.15208000      -4.64184000
O       -3.44040000       2.36201000      -6.92507000
O       -4.54951000      -4.74036000      -1.70280000
O       -4.64611000      -2.15058000      -2.14867000
O        6.92612000      -2.36052000      -3.43613000
O       -6.92935000      -2.36052000      -3.43613000
H       -7.77598000       2.85259000       3.49571000
H        1.79546000       5.58901000      -5.02932000
H       -5.03359000      -5.58751000       1.79974000
H       -1.79869000      -5.58751000       5.03464000
H        5.03037000      -5.58751000      -1.79441000
H       -3.49466000       2.85259000       7.77703000
H        5.03037000      -5.58751000       1.79974000
H       -7.77598000       2.85259000      -3.49038000
H        1.79546000      -5.58751000      -5.02932000
H        3.49143000      -2.85109000      -7.77171000
H        1.79546000       5.58901000       5.03464000
H       -1.79869000      -5.58751000      -5.02932000
H        3.49143000      -2.85109000       7.77703000
H        5.03037000       5.58901000       1.79974000
H       -1.79869000       5.58901000       5.03464000
H       -5.03359000       5.58901000      -1.79441000
H        7.77276000       2.85259000       3.49571000
H       -7.77598000      -2.85109000       3.49571000
H        1.79546000      -5.58751000       5.03464000
H       -3.49466000      -2.85109000      -7.77171000
H        7.77276000      -2.85109000       3.49571000
H        3.49143000       2.85259000       7.77703000
H       -3.49466000      -2.85109000       7.77703000
H        3.49143000       2.85259000      -7.77171000
H       -5.03359000       5.58901000       1.79974000
H        7.77276000       2.85259000      -3.49038000
H        5.03037000       5.58901000      -1.79441000
H       -1.79869000       5.58901000      -5.02932000
H       -3.49466000       2.85259000      -7.77171000
H       -5.03359000      -5.58751000      -1.79441000
H        7.77276000      -2.85109000      -3.49038000
H       -7.77598000      -2.85109000      -3.49038000
