55
Properties=species:S:1:pos:R:3 pbc="F F F"
Ba      -0.27633800      -0.41544900      -0.38636400
Si       0.56380000       0.30406100       3.43336000
Si       0.56380000      -0.31359100      -3.43773000
Al      -2.88744400      -1.53909100       0.23993800
Si      -0.46970500       2.27173000      -2.15516500
Al      -1.20435900      -2.63026900      -2.15516100
Si      -1.20436000       2.62075000       2.15078000
Si      -0.46971500      -2.28125000       2.15079800
Si      -2.88743600       1.52955800      -0.24430700
Si       2.75947000      -0.95379000      -1.24274800
Si       1.21337100      -3.37244000      -0.24429900
Si       1.21337000       3.36291000       0.23992000
Si       2.75946900       0.94425900       1.23837100
O       -1.75224000       3.65997000       3.27929000
O       -2.43501000       2.18839000       1.17434100
O       -0.04426000      -3.35675100      -1.27676000
O       -0.60045000       1.29623000       2.87511000
O        0.85226000       0.63250000       5.00006000
O       -0.60045000      -1.30575100      -2.87948000
O        0.07818000      -1.24203200       3.27929000
O        1.92935000       0.52758900       2.57497000
O        0.85226000      -0.64202000      -5.00444000
O        0.07818100       1.23250100      -3.28365900
O        1.92934900      -0.53711700      -2.57934900
O       -4.11600000      -2.40380000       0.87019900
O       -2.43500900      -2.19791800      -1.17872200
O       -1.62976200      -1.55476100       1.27236200
O       -3.37305100      -0.00475900      -0.00218900
O       -1.07360900       3.59625100      -2.87947900
O        0.76095100       2.70408000      -1.17872000
O       -1.62978100       1.54524300      -1.27675400
O       -1.75224000      -3.66950000      -3.28366000
O       -0.04426000       3.34723000       1.27239000
O       -1.07360900      -3.60577300       2.87510700
O        0.76095000      -2.71361000       1.17433900
O       -4.11599900       2.39428200      -0.87457900
O        2.30290200      -0.00476000      -0.00219000
O        4.35122000      -0.76750800      -1.51887200
O        2.44194000      -2.50772000      -0.87458300
O        1.69899000      -4.90676000      -0.00218900
O        2.44193900       2.49820000       0.87020100
O        1.69899000       4.89724000      -0.00219000
O        4.35122000       0.75798900       1.51448900
H       -2.08184000       4.28516000       3.95819000
H        1.02607000       0.83038000       5.94401000
H        1.02607000      -0.83991000      -5.94838000
H       -4.85501000      -2.92394100       1.24932900
H       -1.43761000       4.39457000      -3.31605000
H       -2.08184000      -4.29469000      -3.96256000
H       -1.43761000      -4.40408900       3.31168100
H       -4.85501100       2.91441000      -1.25369900
H        5.31044000      -0.65526100      -1.68527000
H        1.99141000      -5.83068000       0.14360000
H        1.99141000       5.82116000      -0.14798000
H        5.31044000       0.64573100       1.68089000
