55
Properties=species:S:1:pos:R:3 pbc="F F F"
Sr       0.00116300      -0.40332300      -0.77131100
Al       1.54003000       0.46632000      -3.08533000
Si      -3.10058000      -1.20663000      -0.97113000
Si       1.54277000       2.88687000      -1.12835000
Si      -1.54002900      -0.46406500       3.07047100
Si       3.10058000       1.20887000       0.95626000
Si       3.10058000      -1.20663000      -0.97113000
Al      -1.54003000       0.46632000      -3.08533000
Si       1.54277000      -2.88462000       1.11349000
Si      -3.10058000       1.20887000       0.95626000
Si       1.54003000      -0.46407000       3.07047000
Si      -1.54277000       2.88687000      -1.12835000
Si      -1.54277000      -2.88462000       1.11349000
O        3.55055000       0.00112000      -0.00743000
O        2.00368000      -2.11433000      -0.22200000
O        4.38485000       2.10901000       1.32250000
O        0.00000000       0.00617000      -2.99285000
O        1.98180000       0.55331000      -4.63168000
O       -2.46733000      -0.60779000      -2.32511000
O        1.71236000       1.91108000      -2.39909000
O        2.46733000      -0.60779000      -2.32511000
O       -2.00368000      -2.11433000      -0.22200000
O       -4.38485000      -2.10677000      -1.33737000
O       -3.55055000       0.00112000      -0.00743000
O        2.00368000       2.11658000       0.20713000
O        0.00000000       3.32433000      -0.99147000
O        2.45365000       4.19673000      -1.33737000
O        0.00000000      -0.00392000       2.97798000
O       -1.98180200      -0.55106400       4.61681900
O       -1.71236000      -1.90884000       2.38423000
O       -2.46733000       0.61004000       2.31024000
O        2.46733000       0.61004000       2.31024000
O        4.38485000      -2.10677000      -1.33737000
O       -1.98180000       0.55331000      -4.63168000
O       -1.71236000       1.91108000      -2.39909000
O        1.71236000      -1.90884000       2.38423000
O        0.00000000      -3.32208000       0.97661000
O        2.45365000      -4.19449000       1.32250000
O       -2.00368000       2.11658000       0.20713000
O       -4.38485000       2.10901000       1.32250000
O        1.98180000      -0.55106000       4.61682000
O       -2.45365000       4.19673000      -1.33737000
O       -2.45365000      -4.19449000       1.32250000
H        5.16633000       2.65675000       1.54536000
H        2.25060000       0.60624000      -5.57261000
H       -5.16633000      -2.65451000      -1.56022000
H        3.00842000       4.99450000      -1.46467000
H       -2.25060900      -0.60398900       5.55774000
H        5.16633000      -2.65451000      -1.56022000
H       -2.25061000       0.60624000      -5.57261000
H        3.00842000      -4.99225000       1.44980000
H       -5.16633000       2.65675000       1.54536000
H        2.25060000      -0.60399000       5.55774000
H       -3.00842000       4.99450000      -1.46467000
H       -3.00842000      -4.99225000       1.44980000
