109
Properties=species:S:1:pos:R:3 pbc="F F F"
Ba       0.00280600      -0.24722200      -0.39570300
Si      -1.52697000      -4.42498000       1.26060000
Al      -4.59210000      -0.89015000      -1.25555000
Si      -3.06599000      -3.53345000      -1.25555000
Si      -3.06427000      -0.00905000      -3.74642000
Si      -1.53902000      -2.65085000      -3.74642000
Si      -3.06857000       0.00139000       3.73743000
Si       1.52697000      -4.42498000       1.26060000
Si      -1.53214000      -2.65980000       3.73743000
Si      -3.06771000       3.53324000       1.26060000
Si       3.06599000      -3.53345000      -1.25555000
Si      -1.52611000       4.42031000      -1.25555000
Si       1.53902000      -2.65085000      -3.74642000
Si      -1.52525000       2.65662000      -3.74642000
Si       1.53213000      -2.65980000       3.73743000
Si      -1.53644000       2.65513000       3.73743000
Si       4.59468000       0.88845000       1.26060000
Al       4.59210000      -0.89015000      -1.25555000
Si       3.06427000      -0.00905000      -3.74642000
Si       3.06857000       0.00139000       3.73743000
Si       3.06771000       3.53324000       1.26060000
Si       1.52611000       4.42031000      -1.25555000
Si       1.52525000       2.65662000      -3.74642000
Si       1.53644000       2.65513000       3.73743000
Si      -4.59468000       0.88845000       1.26060000
O        1.89193000       1.09121000       3.59140000
O        3.58072000      -0.03290000       5.26228000
O        2.49445000       3.51237000       2.76579000
O        4.30719000       4.55598000       1.17354000
O        1.90570000       4.00734000       0.25245000
O        2.50823000       5.59362000      -1.75822000
O        1.68707000       3.13966000      -2.21876000
O        4.27448000      -2.46897000      -1.30329000
O       -2.50995000      -1.44922000       3.32462000
O       -3.58072000      -0.03290000       5.26228000
O       -1.89193000       1.09121000       3.59140000
O        0.00000000      -4.11488000       0.85622000
O       -1.79552000      -3.91809000       2.76579000
O       -4.42426000      -0.35493000       0.25245000
O       -1.79294000      -6.00977000       1.17354000
O       -2.51855000      -3.65570000       0.25245000
O       -6.09927000      -0.62626000      -1.75822000
O       -3.56351000      -0.11042000      -2.21876000
O        6.09927000      -0.62626000      -1.75822000
O        3.56350000      -0.11042000      -2.21876000
O        2.50736000       3.51684000      -4.68998000
O        1.76282000       3.11580000       5.26228000
O       -6.10014000       1.45051000       1.17354000
O       -2.50823000       5.59362000      -1.75822000
O       -1.68707000       3.13966000      -2.21876000
O        0.00000000       4.93465000      -1.30329000
O        1.79294000      -3.93151000      -4.68998000
O        2.49273000      -1.44027000      -4.21820000
O       -4.27448000      -2.46897000      -1.30329000
O       -3.59105000      -4.97064000      -1.75822000
O       -1.87644000      -3.03252000      -2.21876000
O       -4.30031000       0.41138000      -4.68998000
O       -2.49273000      -1.44027000      -4.21820000
O       -1.90054000       1.09717000      -3.86156000
O       -1.79294000      -3.93151000      -4.68998000
O       -0.00086000      -2.19614000      -3.86156000
O       -4.28998000       0.40243000       2.76579000
O        1.79552000      -3.91809000       2.76579000
O        4.30031000       0.41138000      -4.68998000
O        1.90140000       1.09568000      -3.86156000
O       -2.50737000       3.51684000      -4.68998000
O        0.00000000       2.87726000      -4.21820000
O        2.50909000      -1.45071000       3.32462000
O        1.81790000      -3.08619000       5.26228000
O        0.00086000       2.89665000       3.32462000
O       -1.76282000       3.11580000       5.26228000
O        3.56264000       2.05580000       0.85622000
O        4.28998000       0.40243000       2.76579000
O        6.10013000       1.45051000       1.17354000
O        4.42425000      -0.35493000       0.25245000
O        1.79294000      -6.00977000       1.17354000
O        2.51855000      -3.65570000       0.25245000
O        0.00000000      -2.18571000       3.59140000
O       -1.81790000      -3.08619000       5.26228000
O       -3.56264000       2.05580000       0.85622000
O       -2.49445000       3.51237000       2.76579000
O       -4.30719000       4.55598000       1.17354000
O       -1.90570000       4.00734000       0.25245000
O        3.59105000      -4.97064000      -1.75822000
O        1.87643000      -3.03252000      -2.21876000
H        3.89267000      -0.05379000       6.19107000
H        5.06198000       5.17878000       1.12053000
H        3.10583000       6.30756000      -2.06408000
H       -3.89267000      -0.05379000       6.19107000
H       -1.95491000      -6.97484000       1.12053000
H       -7.01637000      -0.46569000      -2.06408000
H        7.01637000      -0.46569000      -2.06408000
H        3.10486000       4.04018000      -5.26401000
H        1.90070000       3.39640000       6.19107000
H       -7.01689000       1.79278000       1.12053000
H       -3.10583000       6.30756000      -2.06408000
H        1.94742000      -4.71062000      -5.26401000
H       -3.91054000      -5.84515000      -2.06408000
H       -5.05228000       0.66715000      -5.26401000
H       -1.94742000      -4.71062000      -5.26401000
H        5.05228000       0.66715000      -5.26401000
H       -3.10486000       4.04018000      -5.26401000
H        1.99197000      -3.34590000       6.19107000
H       -1.90070000       3.39640000       6.19107000
H        7.01689000       1.79278000       1.12053000
H        1.95491000      -6.97484000       1.12053000
H       -1.99197000      -3.34590000       6.19107000
H       -5.06198000       5.17878000       1.12053000
H        3.91054000      -5.84515000      -2.06408000
