109
Properties=species:S:1:pos:R:3 pbc="F F F"
Ba      -0.23454900      -0.11679600       0.36537100
Si      -1.52791000      -4.42443000       1.26367000
Al      -4.59304000      -0.88960000      -1.25248000
Si      -3.06693000      -3.53290000      -1.25248000
Si      -3.06521000      -0.00850000      -3.74335000
Si      -1.53996000      -2.65031000      -3.74335000
Si      -3.06951000       0.00194000       3.74050000
Si       1.52603000      -4.42443000       1.26367000
Si      -1.53307000      -2.65925000       3.74050000
Si      -3.06865000       3.53379000       1.26367000
Si       3.06505000      -3.53290000      -1.25248000
Si      -1.52705000       4.42086000      -1.25248000
Si       1.53808000      -2.65031000      -3.74335000
Si      -1.52619000       2.65717000      -3.74335000
Si       1.53120000      -2.65925000       3.74050000
Si      -1.53738000       2.65567000       3.74050000
Si       4.59375000       0.88900000       1.26367000
Si       4.59116000      -0.88960000      -1.25248000
Si       3.06333000      -0.00850000      -3.74335000
Al       3.06764000       0.00194000       3.74050000
Si       3.06678000       3.53379000       1.26367000
Si       1.52517000       4.42086000      -1.25248000
Si       1.52431000       2.65717000      -3.74335000
Si       1.53550000       2.65567000       3.74050000
Si      -4.59562000       0.88900000       1.26367000
O        1.89099000       1.09176000       3.59448000
O        3.57978000      -0.03235000       5.26536000
O        2.49352000       3.51292000       2.76887000
O        4.30626000       4.55652000       1.17662000
O        1.90476000       4.00789000       0.25553000
O        2.50729000       5.59417000      -1.75514000
O        1.68613000       3.14021000      -2.21569000
O        4.27355000      -2.46842000      -1.30022000
O       -2.51088000      -1.44867000       3.32770000
O       -3.58166000      -0.03235000       5.26536000
O       -1.89287000       1.09176000       3.59448000
O       -0.00094000      -4.11433000       0.85929000
O       -1.79646000      -3.91754000       2.76887000
O       -4.42519000      -0.35438000       0.25553000
O       -1.79388000      -6.00922000       1.17662000
O       -2.51949000      -3.65515000       0.25553000
O       -6.10021000      -0.62571000      -1.75514000
O       -3.56444000      -0.10988000      -2.21569000
O        6.09834000      -0.62571000      -1.75514000
O        3.56257000      -0.10988000      -2.21569000
O        2.50643000       3.51739000      -4.68691000
O        1.76188000       3.11635000       5.26536000
O       -6.10107000       1.45106000       1.17662000
O       -2.50916000       5.59417000      -1.75514000
O       -1.68801000       3.14021000      -2.21569000
O       -0.00094000       4.93520000      -1.30022000
O        1.79200000      -3.93096000      -4.68691000
O        2.49179000      -1.43973000      -4.21513000
O       -4.27542000      -2.46842000      -1.30022000
O       -3.59199000      -4.97009000      -1.75514000
O       -1.87737000      -3.03197000      -2.21569000
O       -4.30124000       0.41193000      -4.68691000
O       -2.49367000      -1.43973000      -4.21513000
O       -1.90147000       1.09772000      -3.85849000
O       -1.79388000      -3.93096000      -4.68691000
O       -0.00180000      -2.19559000      -3.85849000
O       -4.29092000       0.40298000       2.76887000
O        1.79459000      -3.91754000       2.76887000
O        4.29937000       0.41193000      -4.68691000
O        1.90046000       1.09623000      -3.85849000
O       -2.50830000       3.51739000      -4.68691000
O       -0.00094000       2.87781000      -4.21513000
O        2.50815000      -1.45016000       3.32770000
O        1.81697000      -3.08564000       5.26536000
O       -0.00008000       2.89719000       3.32770000
O       -1.76375000       3.11635000       5.26536000
O        3.56171000       2.05635000       0.85929000
O        4.28904000       0.40298000       2.76887000
O        6.09920000       1.45106000       1.17662000
O        4.42332000      -0.35438000       0.25553000
O        1.79200000      -6.00922000       1.17662000
O        2.51762000      -3.65515000       0.25553000
O       -0.00094000      -2.18516000       3.59448000
O       -1.81884000      -3.08564000       5.26536000
O       -3.56358000       2.05635000       0.85929000
O       -2.49539000       3.51292000       2.76887000
O       -4.30813000       4.55652000       1.17662000
O       -1.90664000       4.00789000       0.25553000
O        3.59011000      -4.97009000      -1.75514000
O        1.87550000      -3.03197000      -2.21569000
H        3.89173000      -0.05324000       6.19415000
H        5.06105000       5.17933000       1.12360000
H        3.10489000       6.30811000      -2.06101000
H       -3.89361000      -0.05324000       6.19415000
H       -1.95585000      -6.97429000       1.12360000
H       -7.01731000      -0.46515000      -2.06101000
H        7.01543000      -0.46515000      -2.06101000
H        3.10392000       4.04073000      -5.26094000
H        1.89977000       3.39695000       6.19415000
H       -7.01783000       1.79333000       1.12360000
H       -3.10677000       6.30811000      -2.06101000
H        1.94648000      -4.71007000      -5.26094000
H       -3.91148000      -5.84460000      -2.06101000
H       -5.05322000       0.66770000      -5.26094000
H       -1.94836000      -4.71007000      -5.26094000
H        5.05134000       0.66770000      -5.26094000
H       -3.10580000       4.04073000      -5.26094000
H        1.99103000      -3.34535000       6.19415000
H       -1.90164000       3.39695000       6.19415000
H        7.01595000       1.79333000       1.12360000
H        1.95397000      -6.97429000       1.12360000
H       -1.99290000      -3.34535000       6.19415000
H       -5.06292000       5.17933000       1.12360000
H        3.90960000      -5.84460000      -2.06101000
