73
Properties=species:S:1:pos:R:3 pbc="F F F"
Sr      -1.01574400      -0.38831600       2.00758200
Si       1.54482000       3.74057000      -1.54001000
Si       3.73770000      -1.55176100       1.54573000
Al      -1.55463200      -3.74464200       1.54573300
Si       1.54482000      -3.74464100       1.54573100
Si       1.54482100       3.74057000       1.54573000
Si      -1.55463000      -3.74464000      -1.54001000
Si       3.73770000      -1.55176000      -1.54001000
Si       1.54482000      -3.74464000      -1.54001000
Si       3.73770000       1.54769000       1.54573000
Si      -3.74749900       1.54771700      -1.54001000
Si       3.73770100       1.54768500      -1.54001200
Si      -1.55463000       3.74057000      -1.54001000
Al      -3.74750500       1.54772700       1.54573900
Si      -3.74751000      -1.55176200       1.54573000
Si      -1.55463700       3.74057600       1.54574200
Si      -3.74751000      -1.55176000      -1.54001000
O        4.93432000       2.06474400      -2.48563800
O       -2.42338000      -2.42050000      -1.82868000
O       -0.00491000      -3.44478000      -1.85456000
O        2.06186000       4.93720000       2.49136000
O        2.41356000       2.41644000      -1.82868000
O        1.70876000       4.16794000       0.00286000
O        2.41356000      -2.42050000       1.83440000
O       -0.00491000       3.44072000      -1.85456000
O        2.06186000       4.93720000      -2.48564000
O        4.16506000      -1.71569900       0.00286000
O        3.43784000      -0.00203000       1.86028000
O       -1.71856900       4.16793900       0.00285900
O       -2.07168000       4.93720000      -2.48564000
O       -2.42336500       2.41642400       1.83437900
O       -3.44765600      -0.00203100       1.86028500
O       -4.94414000       2.06474000       2.49136000
O        4.93432000      -2.06880000       2.49136000
O       -2.42337700      -2.42049700       1.83439600
O       -1.71856900      -4.17200000       0.00286000
O       -0.00491000      -3.44477900       1.86027900
O       -2.07168000      -4.94126000       2.49136000
O        1.70876000      -4.17200000       0.00286000
O        2.06186000      -4.94126000       2.49136000
O        2.41356000       2.41644000       1.83440000
O       -0.00491000       3.44071900       1.86028000
O       -2.07168000      -4.94126000      -2.48564000
O       -4.17488000      -1.71570000       0.00286000
O       -4.94414000      -2.06880000       2.49136000
O       -2.07168000       4.93720000       2.49135900
O       -4.94414000      -2.06880000      -2.48564000
O        2.41356000      -2.42050000      -1.82868000
O        3.43784000      -0.00203000      -1.85456000
O        4.93432000      -2.06880000      -2.48564000
O        2.06186000      -4.94126000      -2.48564000
O        4.16506000       1.71164100       0.00286000
O        4.93432000       2.06474000       2.49136000
O       -2.42337900       2.41643700      -1.82867900
O       -4.17489700       1.71159200       0.00286000
O       -3.44765300      -0.00203100      -1.85456100
O       -4.94414100       2.06473800      -2.48564000
H        5.66251000       2.37937900      -3.06109100
H        2.37650000       5.66539000       3.06681000
H        2.37650000       5.66539000      -3.06109000
H       -2.38632000       5.66539000      -3.06109000
H       -5.67233000       2.37938000       3.06681000
H        5.66251000      -2.38344000       3.06681000
H       -2.38632000      -5.66945000       3.06681000
H        2.37650000      -5.66945000       3.06681000
H       -2.38632000      -5.66945000      -3.06109000
H       -5.67233000      -2.38344000       3.06681000
H       -2.38632000       5.66539000       3.06681000
H       -5.67233000      -2.38344000      -3.06109000
H        5.66251000      -2.38344000      -3.06109000
H        2.37650000      -5.66945000      -3.06109000
H        5.66251000       2.37938000       3.06681000
H       -5.67232900       2.37938100      -3.06109000
