109
Properties=species:S:1:pos:R:3 pbc="F F F"
Ba       0.14244500      -0.49831600       0.21972100
Si      -2.16798000      -0.00142000       4.06569000
Si      -1.50111000       3.75369000      -2.93008000
Si       2.30736000       4.56000000      -0.09512000
Al      -4.56146000      -2.30881000      -0.09512000
Si      -4.50811000      -0.00142300       1.96954200
Si       1.50104000      -3.75653000      -2.93008000
Si      -2.30742000      -4.56285000      -0.09512000
Si      -0.00003000       2.16653000       4.06569000
Si       1.50104000       3.75369000      -2.93008000
Si      -2.30742000       4.56000000      -0.09512000
Si      -0.00002500       4.50665000       1.96954100
Si      -0.00003000      -2.16937000       4.06569000
Si       3.75508000       1.49965000      -2.93008000
Si      -1.50111300      -3.75652700      -2.93008200
Si       2.30736000      -4.56285000      -0.09512000
Si      -0.00003000      -4.50950000       1.96954000
Si      -3.75514000      -1.50250000      -2.93008000
Si      -4.56146000       2.30597000      -0.09512000
Si      -3.75514000       1.49965000      -2.93008000
Si       4.56139000      -2.30881000      -0.09512000
Si       2.16792000      -0.00142000       4.06569000
Si       3.75508000      -1.50250000      -2.93008000
Si       4.56139000       2.30597000      -0.09512000
Al       4.50804000      -0.00142000       1.96954000
O       -4.75303000       1.90342000      -4.12707000
O        4.51289000      -1.55100000      -1.51260000
O        4.15763000      -1.31092000       1.10187000
O        6.06247000      -2.83746000       0.15974000
O        3.57321000      -0.00142000       3.28107000
O        2.47226000      -0.00142000       5.64640000
O        4.75297000      -1.90626000      -4.12707000
O       -1.30953000       4.15624000       1.10187000
O       -6.06253000      -0.00141800       2.38761800
O        1.54954000      -4.51435000      -1.51260000
O       -4.15769000       1.30808000       1.10187000
O       -3.57327000      -0.00141900       3.28107000
O       -2.47232000      -0.00142000       5.64640000
O       -1.54961000       4.51150000      -1.51260000
O       -1.31438000      -1.31577000       3.69343000
O       -1.31438000       1.31293000       3.69343000
O       -1.90487000       4.75158000      -4.12707000
O       -0.00003000       3.22504000      -3.18494000
O       -4.75303000      -1.90626000      -4.12707000
O       -3.22649000      -0.00142000      -3.18494000
O        4.15763000       1.30808000       1.10187000
O        6.06247000       2.83462000       0.15974000
O        6.06247000      -0.00142000       2.38762000
O       -2.83607000       6.06108000       0.15974000
O       -3.57206000       3.57060000      -0.12089000
O       -0.00003400       6.06108000       2.38761900
O       -0.00003000      -3.57466000       3.28107000
O       -0.00003000      -2.47371000       5.64640000
O       -2.49051000       2.48905000      -2.90431000
O        1.54954000       4.51150000      -1.51260000
O        1.30947000       4.15624000       1.10187000
O        2.83601000       6.06108000       0.15974000
O        3.57199000       3.57060000      -0.12089000
O       -4.51296000      -1.55100000      -1.51260000
O       -4.15769000      -1.31092000       1.10187000
O       -6.06253000      -2.83746000       0.15974000
O       -3.57206000      -3.57345000      -0.12089000
O        1.90481000      -4.75442000      -4.12707000
O       -4.51296000       1.54815000      -1.51260000
O       -6.06253000       2.83462000       0.15974000
O        1.31432000      -1.31577000       3.69343000
O        4.51289000       1.54815000      -1.51260000
O        4.75297000       1.90342000      -4.12707000
O        3.22643000      -0.00142000      -3.18494000
O       -1.90486800      -4.75442200      -4.12706900
O       -2.49051000      -2.49190000      -2.90431000
O        1.30947000      -4.15908000       1.10187000
O        2.83601000      -6.06392000       0.15974000
O        3.57199000      -3.57345000      -0.12089000
O       -0.00003000      -6.06392000       2.38762000
O       -0.00003000      -3.22788000      -3.18494000
O        2.49044000      -2.49190000      -2.90431000
O       -1.54961000      -4.51435000      -1.51260000
O       -1.30953000      -4.15908000       1.10187000
O       -2.83607000      -6.06392000       0.15974000
O       -0.00003000       3.57182000       3.28107000
O       -0.00003000       2.47087000       5.64640000
O        1.31432000       1.31293000       3.69343000
O        1.90481000       4.75158000      -4.12707000
O        2.49044000       2.48905000      -2.90431000
H       -5.36050000       2.14921000      -4.85574000
H        6.97519000      -3.15890000       0.31471000
H        2.65753000      -0.00142000       6.60873000
H        5.36044000      -2.15205000      -4.85574000
H       -7.00890000      -0.00142000       2.64216000
H       -2.65760000      -0.00142000       6.60873000
H       -2.15066000       5.35905000      -4.85574000
H       -5.36050000      -2.15205000      -4.85574000
H        6.97519000       3.15606000       0.31471000
H        7.00883000      -0.00142000       2.64216000
H       -3.15751000       6.97380000       0.31471000
H       -0.00002900       7.00745000       2.64216000
H       -0.00003000      -2.65899000       6.60873000
H        3.15745000       6.97380000       0.31471000
H       -6.97525000      -3.15890000       0.31471000
H        2.15060000      -5.36189000      -4.85574000
H       -6.97525000       3.15606000       0.31471000
H        5.36044000       2.14921000      -4.85574000
H       -2.15066000      -5.36189000      -4.85574000
H        3.15745000      -6.97664000       0.31471000
H       -0.00003000      -7.01029000       2.64216000
H       -3.15751000      -6.97664000       0.31471000
H       -0.00003000       2.65615000       6.60873000
H        2.15060000       5.35905000      -4.85574000
