109
Properties=species:S:1:pos:R:3 pbc="F F F"
Ba      -0.37058200       0.20912200       0.28847400
Si      -1.52885000      -4.42280000       1.26367000
Al      -4.59398000      -0.88796000      -1.25248000
Si      -3.06787000      -3.53126000      -1.25248000
Si      -3.06615000      -0.00686000      -3.74335000
Si      -1.54090000      -2.64867000      -3.74335000
Si      -3.07046000       0.00357000       3.74050000
Si       1.52509000      -4.42280000       1.26367000
Si      -1.53402000      -2.65762000       3.74050000
Si      -3.06959000       3.53543000       1.26367000
Si       3.06411000      -3.53126000      -1.25248000
Si      -1.52799000       4.42249000      -1.25248000
Si       1.53714000      -2.64867000      -3.74335000
Si      -1.52713000       2.65880000      -3.74335000
Si       1.53025000      -2.65762000       3.74050000
Si      -1.53832000       2.65731000       3.74050000
Si       4.59280000       0.89064000       1.26367000
Si       4.59022000      -0.88796000      -1.25248000
Si       3.06239000      -0.00686000      -3.74335000
Si       3.06669000       0.00357000       3.74050000
Si       3.06583000       3.53543000       1.26367000
Si       1.52423000       4.42249000      -1.25248000
Si       1.52337000       2.65880000      -3.74335000
Al       1.53456000       2.65731000       3.74050000
Si      -4.59656000       0.89064000       1.26367000
O        1.89005000       1.09339000       3.59448000
O        3.57884000      -0.03072000       5.26536000
O        2.49257000       3.51455000       2.76887000
O        4.30531000       4.55816000       1.17662000
O        1.90382000       4.00952000       0.25553000
O        2.50634000       5.59580000      -1.75514000
O        1.68519000       3.14184000      -2.21569000
O        4.27260000      -2.46679000      -1.30022000
O       -2.51183000      -1.44704000       3.32770000
O       -3.58260000      -0.03072000       5.26536000
O       -1.89381000       1.09339000       3.59448000
O       -0.00188000      -4.11270000       0.85929000
O       -1.79741000      -3.91591000       2.76887000
O       -4.42614000      -0.35274000       0.25553000
O       -1.79482000      -6.00759000       1.17662000
O       -2.52044000      -3.65351000       0.25553000
O       -6.10116000      -0.62408000      -1.75514000
O       -3.56539000      -0.10824000      -2.21569000
O        6.09739000      -0.62408000      -1.75514000
O        3.56162000      -0.10824000      -2.21569000
O        2.50548000       3.51903000      -4.68691000
O        1.76093000       3.11799000       5.26536000
O       -6.10202000       1.45269000       1.17662000
O       -2.51011000       5.59580000      -1.75514000
O       -1.68895000       3.14184000      -2.21569000
O       -0.00188000       4.93684000      -1.30022000
O        1.79106000      -3.92932000      -4.68691000
O        2.49085000      -1.43809000      -4.21513000
O       -4.27637000      -2.46679000      -1.30022000
O       -3.59293000      -4.96845000      -1.75514000
O       -1.87832000      -3.03033000      -2.21569000
O       -4.30219000       0.41356000      -4.68691000
O       -2.49461000      -1.43809000      -4.21513000
O       -1.90242000       1.09936000      -3.85849000
O       -1.79482000      -3.92932000      -4.68691000
O       -0.00274000      -2.19396000      -3.85849000
O       -4.29186000       0.40462000       2.76887000
O        1.79364000      -3.91591000       2.76887000
O        4.29843000       0.41356000      -4.68691000
O        1.89952000       1.09787000      -3.85849000
O       -2.50925000       3.51903000      -4.68691000
O       -0.00188000       2.87945000      -4.21513000
O        2.50720000      -1.44853000       3.32770000
O        1.81602000      -3.08400000       5.26536000
O       -0.00102000       2.89883000       3.32770000
O       -1.76470000       3.11799000       5.26536000
O        3.56076000       2.05798000       0.85929000
O        4.28810000       0.40462000       2.76887000
O        6.09825000       1.45269000       1.17662000
O        4.42237000      -0.35274000       0.25553000
O        1.79106000      -6.00759000       1.17662000
O        2.51667000      -3.65351000       0.25553000
O       -0.00188000      -2.18352000       3.59448000
O       -1.81979000      -3.08400000       5.26536000
O       -3.56453000       2.05798000       0.85929000
O       -2.49633000       3.51455000       2.76887000
O       -4.30907000       4.55816000       1.17662000
O       -1.90758000       4.00952000       0.25553000
O        3.58917000      -4.96845000      -1.75514000
O        1.87455000      -3.03033000      -2.21569000
H        3.89079000      -0.05160000       6.19415000
H        5.06010000       5.18096000       1.12360000
H        3.10395000       6.30974000      -2.06101000
H       -3.89455000      -0.05160000       6.19415000
H       -1.95679000      -6.97265000       1.12360000
H       -7.01825000      -0.46351000      -2.06101000
H        7.01449000      -0.46351000      -2.06101000
H        3.10298000       4.04237000      -5.26094000
H        1.89882000       3.39858000       6.19415000
H       -7.01877000       1.79496000       1.12360000
H       -3.10771000       6.30974000      -2.06101000
H        1.94554000      -4.70844000      -5.26094000
H       -3.91242000      -5.84297000      -2.06101000
H       -5.05416000       0.66933000      -5.26094000
H       -1.94930000      -4.70844000      -5.26094000
H        5.05040000       0.66933000      -5.26094000
H       -3.10674000       4.04237000      -5.26094000
H        1.99008000      -3.34372000       6.19415000
H       -1.90258000       3.39858000       6.19415000
H        7.01501000       1.79496000       1.12360000
H        1.95303000      -6.97265000       1.12360000
H       -1.99385000      -3.34372000       6.19415000
H       -5.06387000       5.18096000       1.12360000
H        3.90866000      -5.84297000      -2.06101000
