109
Properties=species:S:1:pos:R:3 pbc="F F F"
Ba       0.78148700      -0.00279600      -0.04408700
Si      -2.16511100       0.00000200       4.06442000
Si      -1.49822900       3.75511000      -2.93135000
Al       2.31023000       4.56143000      -0.09639000
Si      -4.55858000      -2.30739000      -0.09639000
Si      -4.50523000       0.00000400       1.96827000
Si       1.50392000      -3.75511100      -2.93134900
Si      -2.30455000      -4.56142000      -0.09639000
Si       0.00283900       2.16795000       4.06442000
Si       1.50392000       3.75511000      -2.93135000
Si      -2.30455000       4.56143000      -0.09639000
Si       0.00284000       4.50808000       1.96827000
Si       0.00283800      -2.16795000       4.06442000
Si       3.75794900       1.50108100      -2.93135000
Si      -1.49822900      -3.75511100      -2.93134900
Al       2.31022900      -4.56142000      -0.09639100
Si       0.00283900      -4.50807000       1.96827000
Si      -3.75227000      -1.50107100      -2.93135000
Si      -4.55858000       2.30739000      -0.09639000
Si      -3.75227000       1.50108100      -2.93135000
Si       4.56427000      -2.30739000      -0.09639100
Si       2.17079000       0.00000000       4.06442000
Si       3.75794900      -1.50107200      -2.93135000
Si       4.56427000       2.30739000      -0.09639000
Si       4.51092000       0.00000000       1.96827000
O       -4.75016000       1.90484000      -4.12834000
O        4.51577000      -1.54957000      -1.51387000
O        4.16050000      -1.30950000       1.10060000
O        6.06534000      -2.83604000       0.15847000
O        3.57608000       0.00000000       3.27980000
O        2.47513000       0.00000100       5.64513000
O        4.75584100      -1.90484000      -4.12834000
O       -1.30666000       4.15766000       1.10060000
O       -6.05966000      -0.00000400       2.38635000
O        1.55242000      -4.51292000      -1.51387000
O       -4.15482000       1.30950000       1.10060000
O       -3.57040000      -0.00000100       3.27980000
O       -2.46945000       0.00000100       5.64513000
O       -1.54673000       4.51293000      -1.51387000
O       -1.31151000      -1.31435000       3.69215000
O       -1.31151000       1.31435000       3.69215000
O       -1.90200000       4.75300000      -4.12834000
O        0.00284000       3.22646000      -3.18621000
O       -4.75016000      -1.90484000      -4.12834000
O       -3.22362000       0.00000000      -3.18621000
O        4.16050000       1.30950000       1.10060000
O        6.06534000       2.83604000       0.15847000
O        6.06534000       0.00000000       2.38635000
O       -2.83320000       6.06250000       0.15847000
O       -3.56918000       3.57203000      -0.12215900
O        0.00284000       6.06250000       2.38635000
O        0.00284200      -3.57324000       3.27980000
O        0.00284100      -2.47229000       5.64513000
O       -2.48763000       2.49048000      -2.90558000
O        1.55242000       4.51293000      -1.51387000
O        1.31234000       4.15766000       1.10060000
O        2.83888000       6.06250000       0.15847000
O        3.57487000       3.57203000      -0.12216000
O       -4.51008000      -1.54957000      -1.51387000
O       -4.15482000      -1.30950000       1.10060000
O       -6.05966000      -2.83604000       0.15847000
O       -3.56918000      -3.57202000      -0.12216000
O        1.90768000      -4.75300000      -4.12834000
O       -4.51008000       1.54958000      -1.51387000
O       -6.05966000       2.83604000       0.15847000
O        1.31719000      -1.31435000       3.69215000
O        4.51577000       1.54958000      -1.51387000
O        4.75584100       1.90484000      -4.12834000
O        3.22930000       0.00000300      -3.18621000
O       -1.90200000      -4.75299900      -4.12834100
O       -2.48763000      -2.49047000      -2.90558000
O        1.31234100      -4.15766100       1.10060100
O        2.83888100      -6.06250000       0.15847100
O        3.57487000      -3.57202000      -0.12215900
O        0.00284000      -6.06250000       2.38635000
O        0.00284000      -3.22646000      -3.18621000
O        2.49332000      -2.49047000      -2.90558000
O       -1.54673000      -4.51292000      -1.51387000
O       -1.30666000      -4.15766000       1.10060000
O       -2.83320000      -6.06250000       0.15847000
O        0.00284000       3.57324000       3.27980000
O        0.00284100       2.47229000       5.64513000
O        1.31719000       1.31435000       3.69215000
O        1.90768000       4.75300000      -4.12834000
O        2.49332000       2.49048000      -2.90558000
H       -5.35763000       2.15063000      -4.85701000
H        6.97806000      -3.15748000       0.31344000
H        2.66041000       0.00000000       6.60746000
H        5.36331000      -2.15063000      -4.85701000
H       -7.00603000       0.00000100       2.64089000
H       -2.65473000      -0.00000100       6.60746000
H       -2.14779000       5.36047000      -4.85701000
H       -5.35763000      -2.15063000      -4.85701000
H        6.97806000       3.15748000       0.31344000
H        7.01171000       0.00000000       2.64089000
H       -3.15464000       6.97522000       0.31344000
H        0.00284000       7.00887000       2.64089000
H        0.00283900      -2.65757000       6.60746000
H        3.16032000       6.97522000       0.31344000
H       -6.97238000      -3.15748000       0.31344000
H        2.15347000      -5.36047000      -4.85701000
H       -6.97238000       3.15748000       0.31344000
H        5.36331000       2.15063000      -4.85701000
H       -2.14779000      -5.36047000      -4.85701000
H        3.16032000      -6.97522000       0.31344000
H        0.00284000      -7.00887000       2.64089000
H       -3.15464000      -6.97522000       0.31344000
H        0.00284000       2.65757000       6.60746000
H        2.15347000       5.36047000      -4.85701000
