109
Properties=species:S:1:pos:R:3 pbc="F F F"
Ba      -0.53026600       0.63389500      -0.18059900
Si      -2.16980000       0.00231100       4.06395000
Si      -1.50293000       3.75741900      -2.93183300
Si       2.30554000       4.56374000      -0.09686000
Si      -4.56328000      -2.30508000      -0.09686000
Al      -4.50993000       0.00231000       1.96779000
Si       1.49922000      -3.75280000      -2.93183000
Si      -2.30924000      -4.55911000      -0.09686000
Si      -0.00185000       2.17026000       4.06395000
Al       1.49922000       3.75742000      -2.93182900
Si      -2.30924000       4.56374000      -0.09686000
Si      -0.00185200       4.51039000       1.96779000
Si      -0.00184900      -2.16564000       4.06395000
Si       3.75326000       1.50339000      -2.93182900
Si      -1.50293000      -3.75280000      -2.93182900
Si       2.30554000      -4.55911000      -0.09686000
Si      -0.00184900      -4.50576000       1.96779000
Si      -3.75696000      -1.49876000      -2.93183000
Si      -4.56328000       2.30970000      -0.09686000
Si      -3.75695900       1.50338600      -2.93183400
Si       4.55957000      -2.30508000      -0.09686000
Si       2.16610000       0.00231100       4.06395000
Si       3.75326000      -1.49876000      -2.93183000
Si       4.55957000       2.30970100      -0.09685900
Si       4.50622000       0.00231000       1.96779000
O       -4.75485100       1.90715200      -4.12880900
O        4.51107000      -1.54726000      -1.51434000
O        4.15581000      -1.30719000       1.10012000
O        6.06065000      -2.83373000       0.15800000
O        3.57139000       0.00231000       3.27932000
O        2.47044000       0.00230900       5.64466000
O        4.75115000      -1.90253000      -4.12881000
O       -1.31135000       4.15997000       1.10012000
O       -6.06435000       0.00231000       2.38588000
O        1.54772000      -4.51061000      -1.51434000
O       -4.15951000       1.31181000       1.10012000
O       -3.57509000       0.00231000       3.27932000
O       -2.47414000       0.00231000       5.64466000
O       -1.55143000       4.51524000      -1.51434000
O       -1.31620000      -1.31204000       3.69168000
O       -1.31620000       1.31666000       3.69168000
O       -1.90669000       4.75531000      -4.12881000
O       -0.00185000       3.22877000      -3.18669000
O       -4.75485000      -1.90253000      -4.12881000
O       -3.22831000       0.00231000      -3.18668900
O        4.15581000       1.31181000       1.10012000
O        6.06065000       2.83834900       0.15800000
O        6.06065000       0.00231000       2.38588000
O       -2.83789000       6.06481000       0.15800000
O       -3.57388000       3.57434000      -0.12263000
O       -0.00184800       6.06481000       2.38588000
O       -0.00185100      -3.57093000       3.27932000
O       -0.00185100      -2.46998000       5.64466000
O       -2.49233000       2.49279100      -2.90604500
O        1.54772000       4.51524000      -1.51434000
O        1.30765000       4.15997000       1.10012000
O        2.83419000       6.06481000       0.15800000
O        3.57017000       3.57434000      -0.12263100
O       -4.51478000      -1.54726000      -1.51434000
O       -4.15951000      -1.30719000       1.10012000
O       -6.06435000      -2.83373000       0.15800000
O       -3.57388000      -3.56971000      -0.12263000
O        1.90299000      -4.75069000      -4.12881000
O       -4.51478000       1.55189000      -1.51434000
O       -6.06435000       2.83835000       0.15800000
O        1.31250000      -1.31204000       3.69168000
O        4.51107000       1.55189000      -1.51434000
O        4.75115000       1.90715000      -4.12881000
O        3.22461000       0.00231000      -3.18669000
O       -1.90669000      -4.75069000      -4.12881000
O       -2.49233000      -2.48816000      -2.90605100
O        1.30765000      -4.15535000       1.10012000
O        2.83419000      -6.06019000       0.15800000
O        3.57017000      -3.56971000      -0.12263000
O       -0.00185000      -6.06019000       2.38588000
O       -0.00185000      -3.22415000      -3.18669000
O        2.48862000      -2.48816000      -2.90605000
O       -1.55143000      -4.51061000      -1.51434000
O       -1.31135000      -4.15535000       1.10012000
O       -2.83789000      -6.06019000       0.15800000
O       -0.00184900       3.57555000       3.27932000
O       -0.00185000       2.47460000       5.64466000
O        1.31250000       1.31666000       3.69168000
O        1.90299000       4.75531000      -4.12881000
O        2.48862000       2.49279000      -2.90605200
H       -5.36232000       2.15294000      -4.85748000
H        6.97337000      -3.15517000       0.31296000
H        2.65572000       0.00231100       6.60698000
H        5.35862000      -2.14832000      -4.85748000
H       -7.01072000       0.00231000       2.64042000
H       -2.65942000       0.00231000       6.60698000
H       -2.15248000       5.36278000      -4.85748000
H       -5.36232000      -2.14832000      -4.85748000
H        6.97337000       3.15979000       0.31296000
H        7.00702000       0.00231000       2.64042000
H       -3.15933000       6.97753000       0.31296000
H       -0.00185100       7.01118000       2.64042000
H       -0.00185000      -2.65526000       6.60698000
H        3.15563000       6.97753000       0.31296000
H       -6.97707000      -3.15517000       0.31296000
H        2.14878000      -5.35816000      -4.85748000
H       -6.97707000       3.15979000       0.31296000
H        5.35862000       2.15294000      -4.85748000
H       -2.15248000      -5.35816000      -4.85748000
H        3.15563000      -6.97291000       0.31296000
H       -0.00185000      -7.00656000       2.64042000
H       -3.15933000      -6.97291000       0.31296000
H       -0.00185000       2.65988000       6.60698000
H        2.14878000       5.36278000      -4.85748000
