109
Properties=species:S:1:pos:R:3 pbc="F F F"
Ba      -0.30196700       0.19978900      -0.48788500
Si      -1.52886000      -4.42280000       1.25906000
Al      -4.59399000      -0.88796000      -1.25708000
Si      -3.06788000      -3.53126000      -1.25708000
Si      -3.06616000      -0.00686000      -3.74796000
Si      -1.54091000      -2.64867000      -3.74796000
Si      -3.07046000       0.00357000       3.73590000
Si       1.52508000      -4.42280000       1.25906000
Si      -1.53402000      -2.65762000       3.73590000
Si      -3.06960000       3.53543000       1.25906000
Si       3.06410000      -3.53126000      -1.25708000
Si      -1.52800000       4.42249000      -1.25708000
Si       1.53713000      -2.64867000      -3.74796000
Si      -1.52714000       2.65880000      -3.74796000
Si       1.53025000      -2.65762000       3.73590000
Si      -1.53833000       2.65731000       3.73590000
Si       4.59280000       0.89064000       1.25906000
Si       4.59021000      -0.88796000      -1.25708000
Si       3.06238000      -0.00686000      -3.74796000
Si       3.06669000       0.00357000       3.73590000
Si       3.06582000       3.53543000       1.25906000
Si       1.52422000       4.42249000      -1.25708000
Al       1.52336000       2.65880000      -3.74796000
Si       1.53455000       2.65731000       3.73590000
Si      -4.59657000       0.89064000       1.25906000
O        1.89004000       1.09339000       3.58987000
O        3.57883000      -0.03072000       5.26075000
O        2.49257000       3.51455000       2.76426000
O        4.30530000       4.55816000       1.17201000
O        1.90381000       4.00952000       0.25092000
O        2.50634000       5.59580000      -1.75975000
O        1.68518000       3.14184000      -2.22030000
O        4.27260000      -2.46679000      -1.30482000
O       -2.51184000      -1.44704000       3.32309000
O       -3.58261000      -0.03072000       5.26075000
O       -1.89382000       1.09339000       3.58987000
O       -0.00189000      -4.11270000       0.85468000
O       -1.79741000      -3.91591000       2.76426000
O       -4.42614000      -0.35274000       0.25092000
O       -1.79483000      -6.00759000       1.17201000
O       -2.52044000      -3.65351000       0.25092000
O       -6.10116000      -0.62408000      -1.75975000
O       -3.56539000      -0.10824000      -2.22030000
O        6.09739000      -0.62408000      -1.75975000
O        3.56162000      -0.10824000      -2.22030000
O        2.50548000       3.51903000      -4.69151000
O        1.76093000       3.11799000       5.26075000
O       -6.10202000       1.45269000       1.17201000
O       -2.51011000       5.59580000      -1.75975000
O       -1.68896000       3.14184000      -2.22030000
O       -0.00189000       4.93684000      -1.30482000
O        1.79105000      -3.92932000      -4.69151000
O        2.49084000      -1.43809000      -4.21973000
O       -4.27637000      -2.46679000      -1.30482000
O       -3.59294000      -4.96845000      -1.75975000
O       -1.87832000      -3.03033000      -2.22030000
O       -4.30220000       0.41356000      -4.69151000
O       -2.49462000      -1.43809000      -4.21973000
O       -1.90242000       1.09936000      -3.86309000
O       -1.79483000      -3.92932000      -4.69151000
O       -0.00275000      -2.19396000      -3.86309000
O       -4.29187000       0.40462000       2.76426000
O        1.79364000      -3.91591000       2.76426000
O        4.29842000       0.41356000      -4.69151000
O        1.89951000       1.09787000      -3.86309000
O       -2.50925000       3.51903000      -4.69151000
O       -0.00189000       2.87945000      -4.21973000
O        2.50720000      -1.44853000       3.32309000
O        1.81602000      -3.08400000       5.26075000
O       -0.00103000       2.89883000       3.32309000
O       -1.76470000       3.11799000       5.26075000
O        3.56076000       2.05798000       0.85468000
O        4.28809000       0.40462000       2.76426000
O        6.09825000       1.45269000       1.17201000
O        4.42237000      -0.35274000       0.25092000
O        1.79105000      -6.00759000       1.17201000
O        2.51667000      -3.65351000       0.25092000
O       -0.00189000      -2.18352000       3.58987000
O       -1.81979000      -3.08400000       5.26075000
O       -3.56453000       2.05798000       0.85468000
O       -2.49634000       3.51455000       2.76426000
O       -4.30908000       4.55816000       1.17201000
O       -1.90759000       4.00952000       0.25092000
O        3.58916000      -4.96845000      -1.75975000
O        1.87455000      -3.03033000      -2.22030000
H        3.89078000      -0.05160000       6.18954000
H        5.06010000       5.18096000       1.11900000
H        3.10394000       6.30974000      -2.06562000
H       -3.89456000      -0.05160000       6.18954000
H       -1.95680000      -6.97265000       1.11900000
H       -7.01826000      -0.46351000      -2.06562000
H        7.01448000      -0.46351000      -2.06562000
H        3.10297000       4.04237000      -5.26555000
H        1.89881000       3.39858000       6.18954000
H       -7.01878000       1.79496000       1.11900000
H       -3.10772000       6.30974000      -2.06562000
H        1.94553000      -4.70844000      -5.26555000
H       -3.91243000      -5.84297000      -2.06562000
H       -5.05417000       0.66933000      -5.26555000
H       -1.94931000      -4.70844000      -5.26555000
H        5.05039000       0.66933000      -5.26555000
H       -3.10675000       4.04237000      -5.26555000
H        1.99008000      -3.34372000       6.18954000
H       -1.90259000       3.39858000       6.18954000
H        7.01500000       1.79496000       1.11900000
H        1.95302000      -6.97265000       1.11900000
H       -1.99385000      -3.34372000       6.18954000
H       -5.06387000       5.18096000       1.11900000
H        3.90865000      -5.84297000      -2.06562000
