145
Properties=species:S:1:pos:R:3 pbc="F F F"
Ba      -0.82051100       0.12316900       0.68012300
Si      -3.35065000       1.55498000       5.53728000
Si       3.75171900      -3.34961300       1.55600900
Al      -3.75378700       3.34961400      -1.55394000
Si       5.53521000       1.55498000       3.35065000
Si      -5.53728000      -1.55498000       3.35065000
Si       3.34858000      -1.55498000      -5.53521000
Si       1.55394000       3.34961000       3.75379000
Si      -1.55601000      -3.34961000      -3.75172000
Si       3.75172000      -3.34961100      -1.55394000
Si       3.34858000       1.55498000      -5.53521000
Si      -3.75378800       3.34961200       1.55601000
Si       5.53521000       1.55498000      -3.34858000
Si      -5.53727900       1.55497900      -3.34858000
Si      -3.35065000      -1.55498000       5.53728000
Si       1.55394000       3.34961000      -3.75172000
Si      -3.75379000      -3.34961000       1.55601000
Si      -1.55601000      -3.34961000       3.75379000
Si       5.53521000      -1.55498000       3.35065000
Si       3.34858000       1.55498000       5.53728000
Si      -5.53728000       1.55498000       3.35065000
Si      -3.35065000      -1.55498000      -5.53521000
Al       1.55394000      -3.34961200       3.75379000
Si       3.75172000       3.34961000      -1.55394000
Si      -1.55601000       3.34961100      -3.75172000
Si      -3.35065000       1.55498000      -5.53521000
Si      -3.75379000      -3.34961000      -1.55394000
Si       5.53521000      -1.55498000      -3.34858000
Si      -5.53728000      -1.55498000      -3.34858000
Si       1.55394000      -3.34961000      -3.75172000
Si       3.34858000      -1.55498000       5.53728000
Si       3.75172000       3.34961000       1.55601000
Si      -1.55601000       3.34961000       3.75379000
O       -6.92877000       2.36126000       3.43982000
O        1.70443000       4.74111000      -4.54686000
O        2.36023000       3.43879000      -2.36023000
O       -3.44911000      -3.06909000       0.00103000
O       -4.54893000      -4.74111000       1.70649000
O       -2.36230000      -3.43879000       2.36230000
O       -0.00103000      -3.06908900       3.44911000
O       -1.70649000      -4.74111000       4.54893000
O       -2.15237000      -2.15133000      -4.64347000
O       -4.74214000      -1.70546000       4.74214000
O       -4.64553000      -2.15133000       2.15237000
O       -2.36230000      -3.43879000      -2.36023000
O        4.54686000      -4.74111000      -1.70443000
O        4.64347000      -2.15133000      -2.15030000
O        2.36023000      -3.43879000      -2.36023000
O        4.74007000       1.70546000      -4.74007000
O       -5.84196000       0.00000000       3.07012000
O       -3.07012000       0.00000000       5.84196000
O       -4.74214000       1.70546000       4.74214000
O        3.44704100      -3.06908900       0.00103000
O       -2.15237000       2.15133000       4.64553000
O       -3.43982000       2.36126000       6.92877000
O        4.54686100      -4.74110900       1.70649100
O        4.64347000      -2.15133000       2.15237000
O       -6.92877000       2.36126000      -3.43775000
O       -2.15237000      -2.15133000       4.64553000
O        1.70443000      -4.74111000      -4.54686000
O        3.06805000       0.00000000      -5.83989000
O        4.74007000      -1.70546000      -4.74007000
O        2.15030000      -2.15133000      -4.64347000
O        3.43775000      -2.36126000      -6.92670000
O       -0.00103000       3.06909000       3.44911000
O        1.70443000       4.74111000       4.54893000
O        2.15030000       2.15133000       4.64553000
O        2.36023000       3.43879000       2.36230000
O       -0.00103000      -3.06909000      -3.44704000
O       -1.70649000      -4.74111000      -4.54686000
O        3.43775000      -2.36126000       6.92877000
O        4.54686000       4.74111000       1.70649000
O       -1.70649000       4.74111000       4.54893000
O        2.36023000      -3.43878600       2.36230000
O       -3.44911400       3.06908600       0.00103000
O       -4.54893100       4.74111000      -1.70443000
O       -4.64553100       2.15133000      -2.15029900
O       -2.36230000       3.43878800      -2.36023000
O        5.83989000       0.00000000       3.07012000
O        4.74007000       1.70546000       4.74214000
O        4.64347000       2.15133000       2.15237000
O        6.92670000       2.36126000       3.43982000
O       -6.92877000      -2.36126000       3.43982000
O        1.70443000      -4.74111000       4.54893000
O        2.15030000      -2.15133000       4.64553000
O        3.44704000       3.06909000       0.00103000
O       -3.07012000       0.00000000      -5.83989000
O       -4.74214000      -1.70546000      -4.74007000
O       -3.43982000      -2.36126000      -6.92670000
O        4.74007000      -1.70546000       4.74214000
O        6.92670000      -2.36126000       3.43982000
O        3.06805000       0.00000000       5.84196000
O        3.43775000       2.36126000       6.92877000
O       -3.43982000      -2.36126000       6.92877000
O       -0.00103000       3.06909000      -3.44704000
O        2.15030000       2.15133000      -4.64347000
O        3.43775000       2.36126000      -6.92670000
O       -4.54893000       4.74111000       1.70649000
O       -4.64553000       2.15133000       2.15237000
O       -2.36230000       3.43879000       2.36230000
O        5.83989000       0.00000000      -3.06805000
O        4.64347000       2.15133000      -2.15030000
O        6.92670000       2.36126000      -3.43775000
O       -5.84196000       0.00000000      -3.06805000
O       -4.74214000       1.70546000      -4.74007000
O        4.54686000       4.74111000      -1.70443000
O       -1.70649000       4.74111000      -4.54686000
O       -2.15237000       2.15133000      -4.64347000
O       -3.43982000       2.36126000      -6.92670000
O       -4.54893000      -4.74111000      -1.70443000
O       -4.64553000      -2.15133000      -2.15030000
O        6.92670000      -2.36126000      -3.43775000
O       -6.92877000      -2.36126000      -3.43775000
H       -7.77541000       2.85184000       3.49408000
H        1.79604000       5.58826000      -5.03095000
H       -5.03302000      -5.58826000       1.79811000
H       -1.79811000      -5.58826000       5.03302000
H        5.03095000      -5.58826000      -1.79604000
H       -3.49408000       2.85184000       7.77541000
H        5.03095000      -5.58826000       1.79811000
H       -7.77541000       2.85184000      -3.49201000
H        1.79604000      -5.58826000      -5.03095000
H        3.49201000      -2.85184000      -7.77334000
H        1.79604000       5.58826000       5.03302000
H       -1.79811000      -5.58826000      -5.03095000
H        3.49201000      -2.85184000       7.77541000
H        5.03095000       5.58826000       1.79811000
H       -1.79811000       5.58826000       5.03302000
H       -5.03302000       5.58826000      -1.79604000
H        7.77334000       2.85184000       3.49408000
H       -7.77541000      -2.85184000       3.49408000
H        1.79604000      -5.58826000       5.03302000
H       -3.49408000      -2.85184000      -7.77334000
H        7.77334000      -2.85184000       3.49408000
H        3.49201000       2.85184000       7.77541000
H       -3.49408000      -2.85184000       7.77541000
H        3.49201000       2.85184000      -7.77334000
H       -5.03302000       5.58826000       1.79811000
H        7.77334000       2.85184000      -3.49201000
H        5.03095000       5.58826000      -1.79604000
H       -1.79811000       5.58826000      -5.03095000
H       -3.49408000       2.85184000      -7.77334000
H       -5.03302000      -5.58826000      -1.79604000
H        7.77334000      -2.85184000      -3.49201000
H       -7.77541000      -2.85184000      -3.49201000
