109
Properties=species:S:1:pos:R:3 pbc="F F F"
Ba      -0.68861100       0.10202700       0.09934100
Si      -2.17026000       0.00041000       4.06524000
Si      -1.50339100       3.75551900      -2.93054400
Si       2.30508000       4.56184000      -0.09557000
Si      -4.56374000      -2.30698000      -0.09557000
Si      -4.51039000       0.00041200       1.96908000
Si       1.49876000      -3.75470000      -2.93054000
Si      -2.30970000      -4.56101000      -0.09557000
Al      -0.00231000       2.16836000       4.06524000
Si       1.49876000       3.75552000      -2.93054000
Si      -2.30970000       4.56184000      -0.09557000
Si      -0.00231000       4.50849000       1.96908000
Si      -0.00230900      -2.16754000       4.06524000
Si       3.75280000       1.50149000      -2.93054000
Si      -1.50339000      -3.75470000      -2.93054000
Si       2.30508000      -4.56101000      -0.09557000
Si      -0.00230900      -4.50766000       1.96908000
Al      -3.75742000      -1.50066000      -2.93054000
Si      -4.56374000       2.30780000      -0.09557000
Si      -3.75741800       1.50149100      -2.93054400
Si       4.55911000      -2.30698000      -0.09557000
Si       2.16564000       0.00041000       4.06524000
Si       3.75280000      -1.50066000      -2.93054000
Si       4.55911000       2.30780000      -0.09557000
Si       4.50576000       0.00041000       1.96908000
O       -4.75531100       1.90524900      -4.12751900
O        4.51061000      -1.54916000      -1.51305000
O        4.15535000      -1.30909000       1.10141000
O        6.06019000      -2.83563000       0.15929000
O        3.57093000       0.00041000       3.28061000
O        2.46998000       0.00041000       5.64595000
O        4.75069000      -1.90443000      -4.12752000
O       -1.31181000       4.15807000       1.10141000
O       -6.06481000       0.00040900       2.38717000
O        1.54726000      -4.51251000      -1.51305000
O       -4.15997000       1.30991000       1.10141000
O       -3.57555000       0.00041000       3.28061000
O       -2.47460000       0.00041000       5.64595000
O       -1.55189000       4.51334000      -1.51305000
O       -1.31666000      -1.31394000       3.69297000
O       -1.31666000       1.31476000       3.69297000
O       -1.90715000       4.75341000      -4.12752000
O       -0.00231000       3.22687000      -3.18539900
O       -4.75531000      -1.90443000      -4.12752000
O       -3.22877000       0.00041000      -3.18540000
O        4.15535000       1.30991000       1.10141000
O        6.06019000       2.83645000       0.15929000
O        6.06019000       0.00041000       2.38717000
O       -2.83835000       6.06291000       0.15929000
O       -3.57434000       3.57244000      -0.12134000
O       -0.00231000       6.06291000       2.38717000
O       -0.00231100      -3.57283100       3.28061000
O       -0.00231000      -2.47188000       5.64595000
O       -2.49279100       2.49089100      -2.90475400
O        1.54726000       4.51334000      -1.51305000
O        1.30719000       4.15807000       1.10141000
O        2.83373000       6.06291000       0.15929000
O        3.56971000       3.57244000      -0.12134000
O       -4.51524000      -1.54916000      -1.51305000
O       -4.15997000      -1.30909000       1.10141000
O       -6.06481000      -2.83563000       0.15929000
O       -3.57434000      -3.57161000      -0.12134000
O        1.90253000      -4.75259000      -4.12752000
O       -4.51524000       1.54999000      -1.51305000
O       -6.06481000       2.83645000       0.15929000
O        1.31204000      -1.31394000       3.69297000
O        4.51061000       1.54999000      -1.51305000
O        4.75069000       1.90525000      -4.12752000
O        3.22415000       0.00041000      -3.18540000
O       -1.90715000      -4.75259000      -4.12752000
O       -2.49279000      -2.49006000      -2.90476000
O        1.30719000      -4.15725000       1.10141000
O        2.83373000      -6.06209000       0.15929000
O        3.56971000      -3.57161000      -0.12134000
O       -0.00231000      -6.06209000       2.38717000
O       -0.00231000      -3.22605000      -3.18540000
O        2.48816000      -2.49006000      -2.90476000
O       -1.55189000      -4.51251000      -1.51305000
O       -1.31181000      -4.15725000       1.10141000
O       -2.83835000      -6.06209000       0.15929000
O       -0.00231000       3.57365000       3.28061000
O       -0.00231000       2.47270000       5.64595000
O        1.31204000       1.31476000       3.69297000
O        1.90253000       4.75341000      -4.12752000
O        2.48816000       2.49089000      -2.90476000
H       -5.36278000       2.15104000      -4.85619000
H        6.97291000      -3.15707000       0.31426000
H        2.65526000       0.00041000       6.60827000
H        5.35816000      -2.15022000      -4.85619000
H       -7.01118000       0.00041000       2.64171000
H       -2.65988000       0.00041000       6.60827000
H       -2.15294000       5.36088000      -4.85619000
H       -5.36278000      -2.15022000      -4.85619000
H        6.97291000       3.15789000       0.31426000
H        7.00656000       0.00041000       2.64171000
H       -3.15979000       6.97563000       0.31426000
H       -0.00231000       7.00928000       2.64171000
H       -0.00231000      -2.65716000       6.60827000
H        3.15517000       6.97563000       0.31426000
H       -6.97753000      -3.15707000       0.31426000
H        2.14832000      -5.36006000      -4.85619000
H       -6.97753000       3.15789000       0.31426000
H        5.35816000       2.15104000      -4.85619000
H       -2.15294000      -5.36006000      -4.85619000
H        3.15517000      -6.97481000       0.31426000
H       -0.00231000      -7.00846000       2.64171000
H       -3.15979000      -6.97481000       0.31426000
H       -0.00231000       2.65798000       6.60827000
H        2.14832000       5.36088000      -4.85619000
