145
Properties=species:S:1:pos:R:3 pbc="F F F"
K       -0.46750700       0.10744400       0.71699100
Al      -3.35126000       1.55574000       5.53896000
Si       3.75111000      -3.34885000       1.55770000
Si      -3.75440000       3.35038000      -1.55226000
Si       5.53460000       1.55574000       3.35233000
Si      -5.53789000      -1.55422000       3.35233000
Si       3.34797000      -1.55422000      -5.53353000
Si       1.55333000       3.35038000       3.75547000
Si      -1.55662000      -3.34885000      -3.75004000
Si       3.75111000      -3.34885000      -1.55226000
Si       3.34797000       1.55574000      -5.53353000
Si      -3.75440000       3.35038000       1.55770000
Si       5.53460000       1.55574000      -3.34690000
Si      -5.53789000       1.55574000      -3.34690000
Si      -3.35126000      -1.55422000       5.53896000
Si       1.55333000       3.35038000      -3.75004000
Si      -3.75440000      -3.34885000       1.55770000
Si      -1.55662000      -3.34885000       3.75547000
Si       5.53460000      -1.55422000       3.35233000
Si       3.34797000       1.55574000       5.53896000
Si      -5.53789000       1.55574000       3.35233000
Si      -3.35126000      -1.55422000      -5.53353000
Si       1.55333000      -3.34885000       3.75547000
Si       3.75111000       3.35038000      -1.55226000
Si      -1.55662000       3.35038000      -3.75004000
Si      -3.35126000       1.55574000      -5.53353000
Si      -3.75440000      -3.34885000      -1.55226000
Si       5.53460000      -1.55422000      -3.34690000
Si      -5.53789000      -1.55422000      -3.34690000
Si       1.55333000      -3.34885000      -3.75004000
Si       3.34797000      -1.55422000       5.53896000
Si       3.75111000       3.35038000       1.55770000
Si      -1.55662000       3.35038000       3.75547000
O       -6.92938000       2.36203000       3.44151000
O        1.70382000       4.74187000      -4.54518000
O        2.35962000       3.43955000      -2.35855000
O       -3.44972000      -3.06832000       0.00272000
O       -4.54954000      -4.74034000       1.70818000
O       -2.36291000      -3.43802000       2.36398000
O       -0.00164000      -3.06832000       3.45079000
O       -1.70710000      -4.74034000       4.55061000
O       -2.15298000      -2.15057000      -4.64178000
O       -4.74275000      -1.70470000       4.74382000
O       -4.64614000      -2.15057000       2.15405000
O       -2.36291000      -3.43802000      -2.35855000
O        4.54625000      -4.74034000      -1.70274000
O        4.64286000      -2.15057000      -2.14861000
O        2.35962000      -3.43802000      -2.35855000
O        4.73946000       1.70622000      -4.73839000
O       -5.84257000       0.00076000       3.07180000
O       -3.07073000       0.00076000       5.84364000
O       -4.74275000       1.70622000       4.74382000
O        3.44643000      -3.06832000       0.00272000
O       -2.15298000       2.15210000       4.64722000
O       -3.44043000       2.36203000       6.93045000
O        4.54625000      -4.74034000       1.70818100
O        4.64286000      -2.15057000       2.15405000
O       -6.92938000       2.36203000      -3.43607000
O       -2.15298000      -2.15057000       4.64722000
O        1.70382000      -4.74034000      -4.54518000
O        3.06744000       0.00076000      -5.83821000
O        4.73946000      -1.70470000      -4.73839000
O        2.14969000      -2.15057000      -4.64178000
O        3.43714000      -2.36050000      -6.92502000
O       -0.00164000       3.06985000       3.45079000
O        1.70382000       4.74187000       4.55061000
O        2.14969000       2.15210000       4.64722000
O        2.35962000       3.43955000       2.36398000
O       -0.00164000      -3.06832000      -3.44536000
O       -1.70710000      -4.74034000      -4.54518000
O        3.43714000      -2.36050000       6.93045000
O        4.54625000       4.74187000       1.70818000
O       -1.70710000       4.74187000       4.55061000
O        2.35962000      -3.43802000       2.36398000
O       -3.44972000       3.06985000       0.00272000
O       -4.54954000       4.74187000      -1.70274000
O       -4.64614000       2.15210000      -2.14861000
O       -2.36291000       3.43955000      -2.35855000
O        5.83928000       0.00076000       3.07180000
O        4.73946000       1.70622000       4.74382000
O        4.64286000       2.15210000       2.15405000
O        6.92609000       2.36203000       3.44151000
O       -6.92938000      -2.36050000       3.44151000
O        1.70382000      -4.74034000       4.55061000
O        2.14969000      -2.15057000       4.64722000
O        3.44643000       3.06985000       0.00272000
O       -3.07073000       0.00076000      -5.83821000
O       -4.74275000      -1.70470000      -4.73839000
O       -3.44043000      -2.36050000      -6.92502000
O        4.73946000      -1.70470000       4.74382000
O        6.92609000      -2.36050000       3.44151000
O        3.06744000       0.00076000       5.84364000
O        3.43714000       2.36203000       6.93045000
O       -3.44043000      -2.36050000       6.93045000
O       -0.00164000       3.06985000      -3.44536000
O        2.14969000       2.15210000      -4.64178000
O        3.43714000       2.36203000      -6.92502000
O       -4.54954000       4.74187000       1.70818000
O       -4.64614000       2.15210000       2.15405000
O       -2.36291000       3.43955000       2.36398000
O        5.83928000       0.00076000      -3.06637000
O        4.64286000       2.15210000      -2.14861000
O        6.92609000       2.36203000      -3.43607000
O       -5.84257000       0.00076000      -3.06637000
O       -4.74275000       1.70622000      -4.73839000
O        4.54625000       4.74187000      -1.70274000
O       -1.70710000       4.74187000      -4.54518000
O       -2.15298000       2.15210000      -4.64178000
O       -3.44043000       2.36203000      -6.92502000
O       -4.54954000      -4.74034000      -1.70274000
O       -4.64614000      -2.15057000      -2.14861000
O        6.92609000      -2.36050000      -3.43607000
O       -6.92938000      -2.36050000      -3.43607000
H       -7.77602000       2.85260000       3.49576000
H        1.79543000       5.58902000      -5.02926000
H       -5.03363000      -5.58749000       1.79979000
H       -1.79872000      -5.58749000       5.03470000
H        5.03034000      -5.58749000      -1.79436000
H       -3.49469000       2.85260000       7.77709000
H        5.03034000      -5.58749000       1.79979000
H       -7.77602000       2.85260000      -3.49033000
H        1.79543000      -5.58749000      -5.02926000
H        3.49140000      -2.85107000      -7.77165000
H        1.79543000       5.58902000       5.03470000
H       -1.79872000      -5.58749000      -5.02926000
H        3.49140000      -2.85107000       7.77709000
H        5.03034000       5.58902000       1.79979000
H       -1.79872000       5.58902000       5.03470000
H       -5.03363000       5.58902000      -1.79436000
H        7.77273000       2.85260000       3.49576000
H       -7.77602000      -2.85107000       3.49576000
H        1.79543000      -5.58749000       5.03470000
H       -3.49469000      -2.85107000      -7.77165000
H        7.77273000      -2.85107000       3.49576000
H        3.49140000       2.85260000       7.77709000
H       -3.49469000      -2.85107000       7.77709000
H        3.49140000       2.85260000      -7.77165000
H       -5.03363000       5.58902000       1.79979000
H        7.77273000       2.85260000      -3.49033000
H        5.03034000       5.58902000      -1.79436000
H       -1.79872000       5.58902000      -5.02926000
H       -3.49469000       2.85260000      -7.77165000
H       -5.03363000      -5.58749000      -1.79436000
H        7.77273000      -2.85107000      -3.49033000
H       -7.77602000      -2.85107000      -3.49033000
