73
Properties=species:S:1:pos:R:3 pbc="F F F"
Sr      -0.00092800      -1.21640800       2.11075500
Si       1.54980000       3.73565000      -1.54000700
Si       3.74151900      -1.55621100       1.54351200
Al      -1.54883200      -3.74919100       1.54467000
Al       1.54639400      -3.74872300       1.54266300
Si       1.55019300       3.73560000       1.54555200
Si      -1.54969300      -3.74961200      -1.54001000
Si       3.74170100      -1.55599500      -1.54124300
Si       1.55272000      -3.75174900      -1.53552700
Si       3.74249500       1.54280100       1.54561100
Si      -3.74259300       1.54279200      -1.54000800
Si       3.74257200       1.54281600      -1.53999000
Si      -1.54973300       3.73566100      -1.54000400
Si      -3.74259100       1.54279000       1.54572000
Si      -3.74249800      -1.55652300       1.54551000
Si      -1.54973000       3.73563700       1.54570600
Si      -3.74261600      -1.55670000      -1.54003900
O        4.93923300       2.05982100      -2.48564200
O       -2.41843300      -2.42537400      -1.82859700
O       -0.00000500      -3.44962100      -1.85475800
O        2.06636300       4.93226000       2.49161900
O        2.41845200       2.41151800      -1.82866800
O        1.71354800       4.16306700       0.00287000
O        2.42010900      -2.42690900       1.83738700
O       -0.00000500       3.43583000      -1.85457100
O        2.06676100       4.93228800      -2.48564700
O        4.17012400      -1.72059800       0.00296900
O        3.44296900      -0.00690600       1.86039300
O       -1.71366500       4.16304100       0.00286200
O       -2.06677000       4.93229000      -2.48564100
O       -2.41847900       2.41153900       1.83441100
O       -3.44274700      -0.00693500       1.86024000
O       -4.93923000       2.05982800       2.49136400
O        4.93905400      -2.07336600       2.49183200
O       -2.41878400      -2.42564500       1.83475500
O       -1.71411000      -4.17682300       0.00291900
O        0.00004900      -3.45042100       1.86159500
O       -2.06691200      -4.94598000       2.49155500
O        1.71540200      -4.17635600       0.00293900
O        2.06711200      -4.94576500       2.49177200
O        2.41844100       2.41153200       1.83440700
O       -0.00002500       3.43585000       1.86031900
O       -2.06667800      -4.94620300      -2.48563500
O       -4.16999200      -1.72061800       0.00286800
O       -4.93922300      -2.07370000       2.49137500
O       -2.06676800       4.93229100       2.49136400
O       -4.93923100      -2.07371100      -2.48563800
O        2.41839100      -2.42527100      -1.82927200
O        3.44282100      -0.00694900      -1.85464800
O        4.93984500      -2.07431900      -2.48453200
O        2.06423200      -4.94504400      -2.48840100
O        4.16999600       1.70671000       0.00286800
O        4.93922300       2.05982800       2.49138100
O       -2.41847100       2.41153200      -1.82868100
O       -4.16997500       1.70672500       0.00286100
O       -3.44276500      -0.00695100      -1.85456400
O       -4.93923100       2.05983300      -2.48563800
H        5.66742000       2.37447200      -3.06108800
H        2.38153000       5.66053000       3.06667500
H        2.38141500       5.66048200      -3.06108500
H       -2.38141000       5.66048000      -3.06109000
H       -5.66742000       2.37447100       3.06680800
H        5.66746900      -2.38840400       3.06671900
H       -2.38141000      -5.67438100       3.06678200
H        2.38142600      -5.67440800       3.06673900
H       -2.38144000      -5.67434800      -3.06109100
H       -5.66741900      -2.38834800       3.06681300
H       -2.38141100       5.66048000       3.06680900
H       -5.66742000      -2.38835000      -3.06109000
H        5.66739900      -2.38830600      -3.06114100
H        2.38157700      -5.67430800      -3.06106400
H        5.66742100       2.37447400       3.06680600
H       -5.66741900       2.37446900      -3.06109100
