73
Properties=species:S:1:pos:R:3 pbc="F F F"
Cs       0.17316200       0.42515000      -2.20379700
Al       1.55119000       3.74617100      -1.54456200
Si       3.74398900      -1.54638900       1.54148900
Si      -1.54834000      -3.73927000       1.54149000
Si       1.55111000      -3.73927000       1.54148900
Si       1.55109400       3.74594100       1.54150800
Si      -1.54833900      -3.73926800      -1.54424900
Si       3.74399500      -1.54639000      -1.54425600
Si       1.55110900      -3.73927300      -1.54425700
Si       3.74399300       1.55307100       1.54149200
Si      -3.74122600       1.55307400      -1.54427400
Si       3.74407100       1.55311600      -1.54437900
Si      -1.54837200       3.74605100      -1.54441000
Si      -3.74122000       1.55306900       1.54148900
Si      -3.74122000      -1.54639000       1.54149000
Si      -1.54833600       3.74594400       1.54149400
Si      -3.74122400      -1.54639200      -1.54426400
O        4.94060800       2.07012500      -2.48987200
O       -2.41709200      -2.41513300      -1.83291200
O        0.00138000      -3.43940900      -1.85878800
O        2.06815700       4.94256800       2.48711800
O        2.41971600       2.42166900      -1.83262600
O        1.71503900       4.17328600      -0.00137800
O        2.41985000      -2.41513000       1.83016000
O        0.00138000       3.44585800      -1.85849300
O        2.06816000       4.94256900      -2.48986600
O        4.17134900      -1.71032900      -0.00137800
O        3.44413000       0.00333900       1.85604100
O       -1.71229100       4.17329900      -0.00137700
O       -2.06537000       4.94258400      -2.48987100
O       -2.41709200       2.42181100       1.83016100
O       -3.44137000       0.00334000       1.85604000
O       -4.93785000       2.07011000       2.48712100
O        4.94061000      -2.06343000       2.48712000
O       -2.41709000      -2.41513000       1.83016000
O       -1.71228900      -4.16663100      -0.00138000
O        0.00138000      -3.43941000       1.85604000
O       -2.06539000      -4.93589000       2.48712000
O        1.71504900      -4.16663000      -0.00137700
O        2.06815000      -4.93589000       2.48712000
O        2.41985000       2.42180700       1.83015100
O        0.00138200       3.44608300       1.85603100
O       -2.06539000      -4.93589000      -2.48988100
O       -4.16859000      -1.71033000      -0.00137900
O       -4.93785000      -2.06343000       2.48712000
O       -2.06539000       4.94257000       2.48712000
O       -4.93785000      -2.06342900      -2.48988000
O        2.41985900      -2.41512400      -1.83292400
O        3.44412200       0.00333800      -1.85879800
O        4.94061000      -2.06343100      -2.48987600
O        2.06815100      -4.93589000      -2.48987600
O        4.17134000       1.71701200      -0.00137900
O        4.94060900       2.07010700       2.48712200
O       -2.41708900       2.42179600      -1.83289400
O       -4.16858800       1.71701100      -0.00137900
O       -3.44136000       0.00335000      -1.85877100
O       -4.93785100       2.07011000      -2.48987700
H        5.66880100       2.38474900      -3.06533000
H        2.38279000       5.67076000       3.06257000
H        2.38279000       5.67076100      -3.06532900
H       -2.38003200       5.67076000      -3.06532900
H       -5.66604000       2.38475000       3.06257000
H        5.66880000      -2.37807000       3.06257000
H       -2.38003000      -5.66408000       3.06257000
H        2.38279000      -5.66408000       3.06257000
H       -2.38003000      -5.66408000      -3.06533000
H       -5.66604000      -2.37807000       3.06257000
H       -2.38003000       5.67076000       3.06257000
H       -5.66604000      -2.37807000      -3.06532900
H        5.66880000      -2.37806900      -3.06533200
H        2.38278900      -5.66408000      -3.06533200
H        5.66880100       2.38475200       3.06256900
H       -5.66604000       2.38475000      -3.06533000
