145
Properties=species:S:1:pos:R:3 pbc="F F F"
Ba       1.06638700      -0.17930800      -0.05740200
Si      -3.34815000       1.55498000       5.53624000
Si       3.75421900      -3.34961000       1.55498000
Si      -3.75129000       3.34961000      -1.55498000
Si       5.53771000       1.55498000       3.34961000
Si      -5.53478000      -1.55498000       3.34961000
Si       3.35108000      -1.55498000      -5.53624000
Al       1.55644000       3.34961000       3.75276000
Si      -1.55352000      -3.34961000      -3.75276000
Si       3.75422000      -3.34961000      -1.55498000
Si       3.35108000       1.55498000      -5.53624000
Si      -3.75129000       3.34961000       1.55498000
Si       5.53771000       1.55498000      -3.34961000
Si      -5.53478000       1.55498000      -3.34961000
Si      -3.34815000      -1.55498000       5.53624000
Si       1.55644000       3.34961000      -3.75276000
Si      -3.75129000      -3.34961000       1.55498000
Si      -1.55352000      -3.34961000       3.75276000
Si       5.53771000      -1.55498000       3.34961000
Si       3.35108000       1.55498000       5.53624000
Si      -5.53478000       1.55498000       3.34961000
Si      -3.34815000      -1.55498000      -5.53624000
Si       1.55644000      -3.34961000       3.75276000
Si       3.75422000       3.34961000      -1.55498000
Si      -1.55352000       3.34961000      -3.75276000
Si      -3.34815000       1.55498000      -5.53624000
Si      -3.75129000      -3.34961000      -1.55498000
Si       5.53771000      -1.55498000      -3.34961000
Si      -5.53478000      -1.55498000      -3.34961000
Al       1.55644000      -3.34961000      -3.75276000
Si       3.35108000      -1.55498000       5.53624000
Si       3.75422000       3.34961000       1.55498000
Si      -1.55352000       3.34961000       3.75276000
O       -6.92627000       2.36126000       3.43879000
O        1.70692000       4.74111000      -4.54789000
O        2.36273000       3.43879000      -2.36126000
O       -3.44661000      -3.06909000       0.00000000
O       -4.54643000      -4.74111000       1.70546000
O       -2.35980000      -3.43879000       2.36126000
O        0.00146000      -3.06909000       3.44808000
O       -1.70400000      -4.74111000       4.54789000
O       -2.14987000      -2.15133000      -4.64450000
O       -4.73964000      -1.70546000       4.74111000
O       -4.64304000      -2.15133000       2.15133000
O       -2.35980000      -3.43879000      -2.36126000
O        4.54936000      -4.74111000      -1.70546000
O        4.64596000      -2.15133000      -2.15133000
O        2.36273000      -3.43879000      -2.36126000
O        4.74257000       1.70546000      -4.74111000
O       -5.83946000       0.00000000       3.06909000
O       -3.06762000       0.00000000       5.84092000
O       -4.73964000       1.70546000       4.74111000
O        3.44954000      -3.06909000       0.00000000
O       -2.14987000       2.15133000       4.64450000
O       -3.43732000       2.36126000       6.92774000
O        4.54936000      -4.74111000       1.70546000
O        4.64596000      -2.15133000       2.15133000
O       -6.92627000       2.36126000      -3.43879000
O       -2.14987000      -2.15133000       4.64450000
O        1.70692000      -4.74111000      -4.54789000
O        3.07055000       0.00000000      -5.84092000
O        4.74257000      -1.70546000      -4.74111000
O        2.15280000      -2.15133000      -4.64450000
O        3.44025000      -2.36126000      -6.92774000
O        0.00146000       3.06909000       3.44808000
O        1.70692000       4.74111000       4.54789000
O        2.15280000       2.15133000       4.64450000
O        2.36273000       3.43879000       2.36126000
O        0.00146000      -3.06909000      -3.44808000
O       -1.70400000      -4.74111000      -4.54789000
O        3.44025000      -2.36126000       6.92774000
O        4.54936000       4.74111000       1.70546000
O       -1.70400000       4.74111000       4.54789000
O        2.36273000      -3.43879000       2.36126000
O       -3.44661000       3.06909000       0.00000000
O       -4.54643000       4.74111000      -1.70546000
O       -4.64304000       2.15133000      -2.15133000
O       -2.35980000       3.43879000      -2.36126000
O        5.84239000       0.00000000       3.06909000
O        4.74257000       1.70546000       4.74111000
O        4.64596000       2.15133000       2.15133000
O        6.92920000       2.36126000       3.43879000
O       -6.92627000      -2.36126000       3.43879000
O        1.70692000      -4.74111000       4.54789000
O        2.15280000      -2.15133000       4.64450000
O        3.44954000       3.06909000       0.00000000
O       -3.06762000       0.00000000      -5.84092000
O       -4.73964000      -1.70546000      -4.74111000
O       -3.43732000      -2.36126000      -6.92774000
O        4.74257000      -1.70546000       4.74111000
O        6.92920000      -2.36126000       3.43879000
O        3.07055000       0.00000000       5.84092000
O        3.44025000       2.36126000       6.92774000
O       -3.43732000      -2.36126000       6.92774000
O        0.00146000       3.06909000      -3.44808000
O        2.15280000       2.15133000      -4.64450000
O        3.44025000       2.36126000      -6.92774000
O       -4.54643000       4.74111000       1.70546000
O       -4.64304000       2.15133000       2.15133000
O       -2.35980000       3.43879000       2.36126000
O        5.84239000       0.00000000      -3.06909000
O        4.64596000       2.15133000      -2.15133000
O        6.92920000       2.36126000      -3.43879000
O       -5.83946000       0.00000000      -3.06909000
O       -4.73964000       1.70546000      -4.74111000
O        4.54936000       4.74111000      -1.70546000
O       -1.70400000       4.74111000      -4.54789000
O       -2.14987000       2.15133000      -4.64450000
O       -3.43732000       2.36126000      -6.92774000
O       -4.54643000      -4.74111000      -1.70546000
O       -4.64304000      -2.15133000      -2.15133000
O        6.92920000      -2.36126000      -3.43879000
O       -6.92627000      -2.36126000      -3.43879000
H       -7.77291000       2.85184000       3.49304000
H        1.79854000       5.58826000      -5.03198000
H       -5.03052000      -5.58826000       1.79707000
H       -1.79561000      -5.58826000       5.03198000
H        5.03344000      -5.58826000      -1.79708000
H       -3.49158000       2.85184000       7.77437000
H        5.03344000      -5.58826000       1.79707000
H       -7.77291000       2.85184000      -3.49305000
H        1.79854000      -5.58826000      -5.03198000
H        3.49451000      -2.85184000      -7.77437000
H        1.79854000       5.58826000       5.03198000
H       -1.79561000      -5.58826000      -5.03198000
H        3.49451000      -2.85184000       7.77437000
H        5.03344000       5.58826000       1.79707000
H       -1.79561000       5.58826000       5.03198000
H       -5.03052000       5.58826000      -1.79708000
H        7.77584000       2.85184000       3.49304000
H       -7.77291000      -2.85184000       3.49304000
H        1.79854000      -5.58826000       5.03198000
H       -3.49158000      -2.85184000      -7.77437000
H        7.77584000      -2.85184000       3.49304000
H        3.49451000       2.85184000       7.77437000
H       -3.49158000      -2.85184000       7.77437000
H        3.49451000       2.85184000      -7.77437000
H       -5.03052000       5.58826000       1.79707000
H        7.77584000       2.85184000      -3.49305000
H        5.03344000       5.58826000      -1.79708000
H       -1.79561000       5.58826000      -5.03198000
H       -3.49158000       2.85184000      -7.77437000
H       -5.03052000      -5.58826000      -1.79708000
H        7.77584000      -2.85184000      -3.49305000
H       -7.77291000      -2.85184000      -3.49305000
