109
Properties=species:S:1:pos:R:3 pbc="F F F"
Ba      -0.15756000      -0.10059300      -0.58913000
Si      -1.52791000      -4.42444000       1.25906000
Al      -4.59304000      -0.88960000      -1.25708000
Si      -3.06693000      -3.53290000      -1.25708000
Si      -3.06521000      -0.00850000      -3.74796000
Si      -1.53996000      -2.65031000      -3.74796000
Si      -3.06951000       0.00193000       3.73590000
Si       1.52603000      -4.42444000       1.25906000
Si      -1.53308000      -2.65926000       3.73590000
Si      -3.06865000       3.53379000       1.25906000
Si       3.06505000      -3.53290000      -1.25708000
Si      -1.52705000       4.42085000      -1.25707900
Si       1.53808000      -2.65031000      -3.74796000
Si      -1.52619000       2.65716000      -3.74796000
Si       1.53119000      -2.65926000       3.73590000
Si      -1.53738000       2.65567000       3.73590000
Si       4.59374000       0.88900000       1.25906000
Si       4.59116000      -0.88960000      -1.25708000
Al       3.06333000      -0.00850000      -3.74796000
Si       3.06763000       0.00193000       3.73590000
Si       3.06677000       3.53379000       1.25906000
Si       1.52517000       4.42085000      -1.25708000
Si       1.52431000       2.65716000      -3.74796000
Si       1.53550000       2.65567000       3.73590000
Si      -4.59562000       0.88900000       1.25906000
O        1.89099000       1.09175000       3.58987000
O        3.57978000      -0.03236000       5.26075000
O        2.49351000       3.51291000       2.76426000
O        4.30625000       4.55652000       1.17201000
O        1.90476000       4.00788000       0.25092000
O        2.50729000       5.59416000      -1.75975000
O        1.68613000       3.14020000      -2.22030000
O        4.27354000      -2.46843000      -1.30482000
O       -2.51089000      -1.44868000       3.32309000
O       -3.58166000      -0.03236000       5.26075000
O       -1.89287000       1.09175000       3.58987000
O       -0.00094000      -4.11434000       0.85468000
O       -1.79646000      -3.91755000       2.76426000
O       -4.42520000      -0.35438000       0.25092000
O       -1.79388000      -6.00923000       1.17201000
O       -2.51949000      -3.65515000       0.25092000
O       -6.10021000      -0.62572000      -1.75975000
O       -3.56445000      -0.10988000      -2.22030000
O        6.09833000      -0.62572000      -1.75975000
O        3.56256000      -0.10988000      -2.22030000
O        2.50642000       3.51739000      -4.69151000
O        1.76188000       3.11634000       5.26075000
O       -6.10108000       1.45105000       1.17201000
O       -2.50916900       5.59416000      -1.75975100
O       -1.68801000       3.14020000      -2.22030000
O       -0.00094000       4.93520000      -1.30482000
O        1.79200000      -3.93096000      -4.69151000
O        2.49179000      -1.43973000      -4.21973000
O       -4.27542000      -2.46843000      -1.30482000
O       -3.59199000      -4.97010000      -1.75975000
O       -1.87738000      -3.03197000      -2.22030000
O       -4.30125000       0.41192000      -4.69151000
O       -2.49367000      -1.43973000      -4.21973000
O       -1.90148000       1.09772000      -3.86309000
O       -1.79388000      -3.93096000      -4.69151000
O       -0.00180000      -2.19560000      -3.86309000
O       -4.29092000       0.40297000       2.76426000
O        1.79458000      -3.91755000       2.76426000
O        4.29937000       0.41192000      -4.69151000
O        1.90046000       1.09623000      -3.86309000
O       -2.50831000       3.51739000      -4.69151000
O       -0.00094000       2.87781000      -4.21973000
O        2.50815000      -1.45017000       3.32309000
O        1.81696000      -3.08564000       5.26075000
O       -0.00008000       2.89719000       3.32309000
O       -1.76376000       3.11634000       5.26075000
O        3.56170000       2.05634000       0.85468000
O        4.28904000       0.40297000       2.76426000
O        6.09919000       1.45105000       1.17201000
O        4.42331000      -0.35438000       0.25092000
O        1.79200000      -6.00923000       1.17201000
O        2.51761000      -3.65515000       0.25092000
O       -0.00094000      -2.18516000       3.58987000
O       -1.81884000      -3.08564000       5.26075000
O       -3.56358000       2.05634000       0.85468000
O       -2.49539000       3.51291000       2.76426000
O       -4.30813000       4.55652000       1.17201000
O       -1.90664000       4.00788000       0.25092000
O        3.59011000      -4.97010000      -1.75975000
O        1.87549000      -3.03197000      -2.22030000
H        3.89173000      -0.05324000       6.18954000
H        5.06104000       5.17932000       1.11900000
H        3.10489000       6.30810000      -2.06562000
H       -3.89361000      -0.05324000       6.18954000
H       -1.95585000      -6.97429000       1.11900000
H       -7.01731000      -0.46515000      -2.06562000
H        7.01543000      -0.46515000      -2.06562000
H        3.10392000       4.04073000      -5.26555000
H        1.89976000       3.39694000       6.18954000
H       -7.01783000       1.79332000       1.11900000
H       -3.10677000       6.30810000      -2.06562000
H        1.94648000      -4.71008000      -5.26555000
H       -3.91148000      -5.84461000      -2.06562000
H       -5.05322000       0.66769000      -5.26555000
H       -1.94836000      -4.71008000      -5.26555000
H        5.05134000       0.66769000      -5.26555000
H       -3.10580000       4.04073000      -5.26555000
H        1.99103000      -3.34536000       6.18954000
H       -1.90164000       3.39694000       6.18954000
H        7.01595000       1.79332000       1.11900000
H        1.95397000      -6.97429000       1.11900000
H       -1.99291000      -3.34536000       6.18954000
H       -5.06292000       5.17932000       1.11900000
H        3.90960000      -5.84461000      -2.06562000
