109
Properties=species:S:1:pos:R:3 pbc="F F F"
Ba      -0.47477600      -0.49867400       0.20863500
Si      -2.16930200      -0.00280900       4.06568900
Si      -1.50243000       3.75230000      -2.93008000
Si       2.30603000       4.55862000      -0.09512100
Si      -4.56278000      -2.31020000      -0.09512000
Al      -4.50943000      -0.00281000       1.96954000
Si       1.49971800      -3.75792000      -2.93008000
Si      -2.30873900      -4.56423000      -0.09511900
Si      -0.00134900       2.16514000       4.06569000
Si       1.49972000       3.75230000      -2.93008000
Si      -2.30873900       4.55861900      -0.09512100
Si      -0.00133700       4.50527200       1.96952900
Si      -0.00135100      -2.17076000       4.06569000
Si       3.75376000       1.49827000      -2.93008000
Si      -1.50237800      -3.75791300      -2.93011800
Al       2.30603000      -4.56423000      -0.09512100
Si      -0.00135100      -4.51088000       1.96954000
Si      -3.75646600      -1.50386000      -2.93010500
Si      -4.56278000       2.30458000      -0.09512000
Si      -3.75647000       1.49826900      -2.93008200
Si       4.56007000      -2.31020000      -0.09512100
Si       2.16660000      -0.00281000       4.06569000
Si       3.75376000      -1.50388000      -2.93008000
Si       4.56007000       2.30457900      -0.09512100
Si       4.50672000      -0.00281000       1.96954000
O       -4.75435100       1.90203000      -4.12706900
O        4.51157000      -1.55238000      -1.51260000
O        4.15631000      -1.31231000       1.10187000
O        6.06115000      -2.83884000       0.15974000
O        3.57188000      -0.00281000       3.28107000
O        2.47093000      -0.00280900       5.64640000
O        4.75165000      -1.90764000      -4.12707000
O       -1.31085200       4.15485100       1.10187200
O       -6.06385000      -0.00281000       2.38762000
O        1.54822000      -4.51573000      -1.51260000
O       -4.15902000       1.30669000       1.10187000
O       -3.57459000      -0.00281100       3.28107000
O       -2.47364000      -0.00281000       5.64640000
O       -1.55093000       4.51012000      -1.51260000
O       -1.31570000      -1.31716000       3.69343000
O       -1.31570000       1.31154000       3.69343000
O       -1.90619000       4.75019000      -4.12707000
O       -0.00135000       3.22366000      -3.18494000
O       -4.75435300      -1.90765200      -4.12706300
O       -3.22782000      -0.00281100      -3.18493800
O        4.15631000       1.30669000       1.10187000
O        6.06115000       2.83323000       0.15974000
O        6.06115000      -0.00281000       2.38762000
O       -2.83739000       6.05969000       0.15974000
O       -3.57338000       3.56922000      -0.12088900
O       -0.00136200       6.05968800       2.38762700
O       -0.00134900      -3.57605000       3.28107000
O       -0.00135000      -2.47510000       5.64640000
O       -2.49183000       2.48767000      -2.90430900
O        1.54822000       4.51012000      -1.51260000
O        1.30815000       4.15485000       1.10187100
O        2.83468000       6.05969000       0.15974000
O        3.57067000       3.56922000      -0.12088900
O       -4.51428000      -1.55238100      -1.51260000
O       -4.15902000      -1.31231000       1.10187000
O       -6.06385000      -2.83884000       0.15974000
O       -3.57338000      -3.57483000      -0.12089000
O        1.90348000      -4.75581000      -4.12707000
O       -4.51428000       1.54677000      -1.51260000
O       -6.06385000       2.83323000       0.15974000
O        1.31300000      -1.31716000       3.69343000
O        4.51157000       1.54677000      -1.51260000
O        4.75165000       1.90203000      -4.12707000
O        3.22511000      -0.00281000      -3.18494000
O       -1.90622400      -4.75581500      -4.12705400
O       -2.49183500      -2.49328400      -2.90427500
O        1.30815000      -4.16047000       1.10187000
O        2.83468000      -6.06531000       0.15974000
O        3.57067000      -3.57483000      -0.12088900
O       -0.00135000      -6.06531000       2.38762000
O       -0.00135200      -3.22927000      -3.18493800
O        2.48912000      -2.49328000      -2.90431000
O       -1.55093200      -4.51573100      -1.51259900
O       -1.31085000      -4.16047000       1.10187000
O       -2.83739000      -6.06531000       0.15974000
O       -0.00135300       3.57043000       3.28107100
O       -0.00135000       2.46948000       5.64640000
O        1.31300000       1.31154000       3.69343000
O        1.90348000       4.75019000      -4.12707000
O        2.48912000       2.48767000      -2.90431000
H       -5.36183000       2.14782000      -4.85574000
H        6.97387000      -3.16029000       0.31471000
H        2.65621000      -0.00281000       6.60873000
H        5.35912000      -2.15344000      -4.85574000
H       -7.01022000      -0.00281000       2.64216000
H       -2.65892000      -0.00281000       6.60873000
H       -2.15199000       5.35766000      -4.85574000
H       -5.36182900      -2.15344000      -4.85574100
H        6.97387000       3.15467000       0.31471000
H        7.00751000      -0.00281000       2.64216000
H       -3.15883000       6.97241000       0.31471000
H       -0.00134600       7.00606000       2.64216000
H       -0.00135000      -2.66037000       6.60873000
H        3.15613000       6.97241000       0.31471000
H       -6.97658000      -3.16029000       0.31471000
H        2.14928000      -5.36328000      -4.85574000
H       -6.97658000       3.15467000       0.31471000
H        5.35912000       2.14782000      -4.85574000
H       -2.15198900      -5.36327800      -4.85574200
H        3.15613000      -6.97803000       0.31471000
H       -0.00135000      -7.01167000       2.64216000
H       -3.15883000      -6.97803000       0.31471000
H       -0.00135000       2.65476000       6.60873000
H        2.14928000       5.35766000      -4.85574000
