109
Properties=species:S:1:pos:R:3 pbc="F F F"
Ba       0.19918100      -0.82481000       0.13233300
Si      -2.16703000      -0.00365000       4.06524000
Si      -1.50015000       3.75147000      -2.93054000
Si       2.30831000       4.55778000      -0.09557100
Si      -4.56050000      -2.31103000      -0.09557000
Si      -4.50715000      -0.00364900       1.96907900
Al       1.50200000      -3.75876000      -2.93054000
Si      -2.30646000      -4.56507000      -0.09557000
Si       0.00092000       2.16430000       4.06524000
Si       1.50200000       3.75147000      -2.93054000
Si      -2.30646000       4.55778000      -0.09557000
Si       0.00092600       4.50442900       1.96908200
Al       0.00092000      -2.17160000       4.06524000
Si       3.75604000       1.49743000      -2.93054000
Si      -1.50015000      -3.75876000      -2.93053900
Si       2.30831000      -4.56507000      -0.09557000
Si       0.00092000      -4.51172000       1.96908000
Si      -3.75419000      -1.50472000      -2.93054000
Si      -4.56050000       2.30374000      -0.09557000
Si      -3.75419000       1.49743000      -2.93054000
Si       4.56235000      -2.31103000      -0.09557000
Si       2.16887000      -0.00365000       4.06524000
Si       3.75604000      -1.50472000      -2.93054000
Si       4.56235000       2.30373900      -0.09557100
Si       4.50900000      -0.00365000       1.96908000
O       -4.75208000       1.90119000      -4.12752000
O        4.51385000      -1.55322000      -1.51305000
O        4.15859000      -1.31315000       1.10141000
O        6.06342000      -2.83968000       0.15929000
O        3.57416000      -0.00365000       3.28061000
O        2.47321000      -0.00365000       5.64595000
O        4.75392000      -1.90848000      -4.12752000
O       -1.30858000       4.15402000       1.10141000
O       -6.06158000      -0.00365100       2.38717100
O        1.55050000      -4.51657000      -1.51305000
O       -4.15674000       1.30585000       1.10141000
O       -3.57231000      -0.00365000       3.28061000
O       -2.47136000      -0.00365000       5.64595000
O       -1.54865000       4.50928000      -1.51305000
O       -1.31343000      -1.31800000       3.69297000
O       -1.31343000       1.31070000       3.69297000
O       -1.90391000       4.74935000      -4.12752000
O        0.00092000       3.22282000      -3.18540000
O       -4.75208000      -1.90848000      -4.12752000
O       -3.22554000      -0.00365000      -3.18540000
O        4.15859000       1.30585000       1.10141000
O        6.06342000       2.83239100       0.15929000
O        6.06342000      -0.00365000       2.38717000
O       -2.83511000       6.05885000       0.15929000
O       -3.57110000       3.56838000      -0.12134000
O        0.00091500       6.05885000       2.38716800
O        0.00092000      -3.57688000       3.28061000
O        0.00092000      -2.47593000       5.64595000
O       -2.48955000       2.48683000      -2.90476000
O        1.55050000       4.50928000      -1.51305000
O        1.31042000       4.15402000       1.10141000
O        2.83696000       6.05885000       0.15929000
O        3.57295000       3.56838000      -0.12133900
O       -4.51200000      -1.55322000      -1.51305000
O       -4.15674000      -1.31315000       1.10141000
O       -6.06158000      -2.83968000       0.15929000
O       -3.57110000      -3.57567000      -0.12134000
O        1.90576000      -4.75665000      -4.12752000
O       -4.51200000       1.54593000      -1.51305000
O       -6.06158000       2.83239000       0.15929000
O        1.31527000      -1.31800000       3.69297000
O        4.51385000       1.54593000      -1.51305000
O        4.75392000       1.90119000      -4.12752000
O        3.22739000      -0.00365000      -3.18540000
O       -1.90391000      -4.75665000      -4.12752000
O       -2.48955000      -2.49412000      -2.90476100
O        1.31042000      -4.16131000       1.10141000
O        2.83696000      -6.06615000       0.15929000
O        3.57295000      -3.57567000      -0.12134000
O        0.00092000      -6.06615000       2.38717000
O        0.00092000      -3.23011000      -3.18540000
O        2.49140000      -2.49412000      -2.90476000
O       -1.54865000      -4.51657000      -1.51305000
O       -1.30858000      -4.16131000       1.10141000
O       -2.83511000      -6.06615000       0.15929000
O        0.00091900       3.56959000       3.28061000
O        0.00092000       2.46864000       5.64595000
O        1.31527000       1.31070000       3.69297000
O        1.90576000       4.74935000      -4.12752000
O        2.49140000       2.48683000      -2.90476000
H       -5.35955000       2.14698000      -4.85619000
H        6.97614000      -3.16113000       0.31426000
H        2.65849000      -0.00365000       6.60827000
H        5.36139000      -2.15428000      -4.85619000
H       -7.00794000      -0.00365000       2.64171000
H       -2.65664000      -0.00365000       6.60827000
H       -2.14971000       5.35682000      -4.85619000
H       -5.35955000      -2.15428000      -4.85619000
H        6.97614000       3.15383000       0.31426000
H        7.00979000      -0.00365000       2.64171000
H       -3.15656000       6.97157000       0.31426000
H        0.00092100       7.00522000       2.64171000
H        0.00092000      -2.66121000       6.60827000
H        3.15840000       6.97157000       0.31426000
H       -6.97430000      -3.16113000       0.31426000
H        2.15155000      -5.36412000      -4.85619000
H       -6.97430000       3.15383000       0.31426000
H        5.36139000       2.14698000      -4.85619000
H       -2.14971000      -5.36412000      -4.85619000
H        3.15840000      -6.97887000       0.31426000
H        0.00092000      -7.01251000       2.64171000
H       -3.15656000      -6.97887000       0.31426000
H        0.00092000       2.65392000       6.60827000
H        2.15155000       5.35682000      -4.85619000
