73
Properties=species:S:1:pos:R:3 pbc="F F F"
Sr      -1.14460600      -1.14469600      -0.00069300
Si       1.54482000       3.73770000      -1.54287000
Si       3.73770000      -1.55463000       1.54287000
Al      -1.55463000      -3.74751000       1.54287000
Si       1.54482000      -3.74751000       1.54287000
Si       1.54482000       3.73770000       1.54287000
Si      -1.55463000      -3.74751000      -1.54287000
Si       3.73770000      -1.55463000      -1.54287000
Si       1.54482000      -3.74751000      -1.54287000
Si       3.73770000       1.54482000       1.54287000
Si      -3.74751000       1.54482000      -1.54287000
Si       3.73770000       1.54482000      -1.54287000
Si      -1.55463000       3.73770000      -1.54287000
Si      -3.74751000       1.54482000       1.54287000
Si      -3.74751000      -1.55463000       1.54287000
Si      -1.55463000       3.73770000       1.54287000
Al      -3.74751000      -1.55463000      -1.54287000
O        4.93432000       2.06186000      -2.48850000
O       -2.42338000      -2.42338000      -1.83154000
O       -0.00491000      -3.44765000      -1.85742000
O        2.06186000       4.93432000       2.48850000
O        2.41356000       2.41356000      -1.83154000
O        1.70876000       4.16506000       0.00000000
O        2.41356000      -2.42338000       1.83154000
O       -0.00491000       3.43784000      -1.85742000
O        2.06186000       4.93432000      -2.48850000
O        4.16506000      -1.71857000       0.00000000
O        3.43784000      -0.00491000       1.85742000
O       -1.71857000       4.16506000       0.00000000
O       -2.07168000       4.93432000      -2.48850000
O       -2.42338000       2.41356000       1.83154000
O       -3.44765000      -0.00491000       1.85742000
O       -4.94414000       2.06186000       2.48850000
O        4.93432000      -2.07168000       2.48850000
O       -2.42338000      -2.42338000       1.83154000
O       -1.71857000      -4.17488000       0.00000000
O       -0.00491000      -3.44765000       1.85742000
O       -2.07168000      -4.94414000       2.48850000
O        1.70876000      -4.17488000       0.00000000
O        2.06186000      -4.94414000       2.48850000
O        2.41356000       2.41356000       1.83154000
O       -0.00491000       3.43784000       1.85742000
O       -2.07168000      -4.94414000      -2.48850000
O       -4.17488000      -1.71857000       0.00000000
O       -4.94414000      -2.07168000       2.48850000
O       -2.07168000       4.93432000       2.48850000
O       -4.94414000      -2.07168000      -2.48850000
O        2.41356000      -2.42338000      -1.83154000
O        3.43784000      -0.00491000      -1.85742000
O        4.93432000      -2.07168000      -2.48850000
O        2.06186000      -4.94414000      -2.48850000
O        4.16506000       1.70876000       0.00000000
O        4.93432000       2.06186000       2.48850000
O       -2.42338000       2.41356000      -1.83154000
O       -4.17488000       1.70876000       0.00000000
O       -3.44765000      -0.00491000      -1.85742000
O       -4.94414000       2.06186000      -2.48850000
H        5.66251000       2.37650000      -3.06395000
H        2.37650000       5.66251000       3.06395000
H        2.37650000       5.66251000      -3.06395000
H       -2.38632000       5.66251000      -3.06395000
H       -5.67233000       2.37650000       3.06395000
H        5.66251000      -2.38632000       3.06395000
H       -2.38632000      -5.67233000       3.06395000
H        2.37650000      -5.67233000       3.06395000
H       -2.38632000      -5.67233000      -3.06395000
H       -5.67233000      -2.38632000       3.06395000
H       -2.38632000       5.66251000       3.06395000
H       -5.67233000      -2.38632000      -3.06395000
H        5.66251000      -2.38632000      -3.06395000
H        2.37650000      -5.67233000      -3.06395000
H        5.66251000       2.37650000       3.06395000
H       -5.67233000       2.37650000      -3.06395000
