109
Properties=species:S:1:pos:R:3 pbc="F F F"
Ba       0.60161100      -0.65756100       0.10832700
Si      -2.16569000      -0.00231000       4.06524000
Si      -1.49882000       3.75280000      -2.93054000
Si       2.30965000       4.55911000      -0.09557000
Si      -4.55917000      -2.30970000      -0.09557000
Si      -4.50582000      -0.00231000       1.96908000
Al       1.50333000      -3.75742000      -2.93054000
Si      -2.30513000      -4.56374000      -0.09557000
Si       0.00226000       2.16564000       4.06524000
Si       1.50333000       3.75280000      -2.93054000
Si      -2.30513000       4.55911000      -0.09557000
Si       0.00226000       4.50576000       1.96908000
Si       0.00226000      -2.17026000       4.06524000
Si       3.75737000       1.49876000      -2.93054000
Si      -1.49882000      -3.75742000      -2.93054000
Si       2.30965000      -4.56374000      -0.09557000
Si       0.00226000      -4.51039000       1.96908000
Si      -3.75285000      -1.50339000      -2.93054000
Si      -4.55917000       2.30508000      -0.09557000
Si      -3.75285000       1.49876000      -2.93054000
Si       4.56368000      -2.30970000      -0.09557000
Al       2.17021000      -0.00231000       4.06524000
Si       3.75737000      -1.50339000      -2.93054000
Si       4.56368000       2.30508000      -0.09557000
Si       4.51033000      -0.00231000       1.96908000
O       -4.75074000       1.90253000      -4.12752000
O        4.51518000      -1.55189000      -1.51305000
O        4.15992000      -1.31181000       1.10141000
O        6.06476000      -2.83835000       0.15929000
O        3.57550000      -0.00231000       3.28061000
O        2.47455000      -0.00231000       5.64595000
O        4.75526000      -1.90715000      -4.12752000
O       -1.30724000       4.15535000       1.10141000
O       -6.06024000      -0.00231000       2.38717000
O        1.55183000      -4.51524000      -1.51305000
O       -4.15540000       1.30719000       1.10141000
O       -3.57098000      -0.00231000       3.28061000
O       -2.47003000      -0.00231000       5.64595000
O       -1.54732000       4.51061000      -1.51305000
O       -1.31209000      -1.31666000       3.69297000
O       -1.31209000       1.31204000       3.69297000
O       -1.90258000       4.75069000      -4.12752000
O        0.00226000       3.22415000      -3.18540000
O       -4.75074000      -1.90715000      -4.12752000
O       -3.22420000      -0.00231000      -3.18540000
O        4.15992000       1.30719000       1.10141000
O        6.06476000       2.83373000       0.15929000
O        6.06476000      -0.00231000       2.38717000
O       -2.83378000       6.06019000       0.15929000
O       -3.56977000       3.56971000      -0.12134000
O        0.00226000       6.06019000       2.38717000
O        0.00226000      -3.57555000       3.28061000
O        0.00226000      -2.47460000       5.64595000
O       -2.48822000       2.48816000      -2.90476000
O        1.55183000       4.51061000      -1.51305000
O        1.31176000       4.15535000       1.10141000
O        2.83830000       6.06019000       0.15929000
O        3.57428000       3.56971000      -0.12134000
O       -4.51067000      -1.55189000      -1.51305000
O       -4.15540000      -1.31181000       1.10141000
O       -6.06024000      -2.83835000       0.15929000
O       -3.56977000      -3.57434000      -0.12134000
O        1.90710000      -4.75531000      -4.12752000
O       -4.51067000       1.54726000      -1.51305000
O       -6.06024000       2.83373000       0.15929000
O        1.31661000      -1.31666000       3.69297000
O        4.51518000       1.54726000      -1.51305000
O        4.75526000       1.90253000      -4.12752000
O        3.22872000      -0.00231000      -3.18540000
O       -1.90258000      -4.75531000      -4.12752000
O       -2.48822000      -2.49279000      -2.90476000
O        1.31176000      -4.15997000       1.10141000
O        2.83830000      -6.06481000       0.15929000
O        3.57428000      -3.57434000      -0.12134000
O        0.00226000      -6.06481000       2.38717000
O        0.00226000      -3.22877000      -3.18540000
O        2.49273000      -2.49279000      -2.90476000
O       -1.54732000      -4.51524000      -1.51305000
O       -1.30724000      -4.15997000       1.10141000
O       -2.83378000      -6.06481000       0.15929000
O        0.00226000       3.57093000       3.28061000
O        0.00226000       2.46998000       5.64595000
O        1.31661000       1.31204000       3.69297000
O        1.90710000       4.75069000      -4.12752000
O        2.49273000       2.48816000      -2.90476000
H       -5.35821000       2.14832000      -4.85619000
H        6.97748000      -3.15979000       0.31426000
H        2.65983000      -0.00231000       6.60827000
H        5.36273000      -2.15294000      -4.85619000
H       -7.00661000      -0.00231000       2.64171000
H       -2.65531000      -0.00231000       6.60827000
H       -2.14837000       5.35816000      -4.85619000
H       -5.35821000      -2.15294000      -4.85619000
H        6.97748000       3.15517000       0.31426000
H        7.01113000      -0.00231000       2.64171000
H       -3.15522000       6.97291000       0.31426000
H        0.00226000       7.00656000       2.64171000
H        0.00226000      -2.65988000       6.60827000
H        3.15974000       6.97291000       0.31426000
H       -6.97296000      -3.15979000       0.31426000
H        2.15289000      -5.36278000      -4.85619000
H       -6.97296000       3.15517000       0.31426000
H        5.36273000       2.14832000      -4.85619000
H       -2.14837000      -5.36278000      -4.85619000
H        3.15974000      -6.97753000       0.31426000
H        0.00226000      -7.01118000       2.64171000
H       -3.15522000      -6.97753000       0.31426000
H        0.00226000       2.65526000       6.60827000
H        2.15289000       5.35816000      -4.85619000
