73
Properties=species:S:1:pos:R:3 pbc="F F F"
Ba      -0.14080000      -0.15392000       0.00948000
Si       1.54502000       3.73790000      -1.54287000
Si       3.73790000      -1.55444000       1.54287000
Al      -1.55444000      -3.74731000       1.54287000
Si       1.54502000      -3.74731000       1.54287000
Si       1.54502000       3.73790000       1.54287000
Si      -1.55444000      -3.74731000      -1.54287000
Si       3.73790000      -1.55444000      -1.54287000
Si       1.54502000      -3.74731000      -1.54287000
Si       3.73790000       1.54502000       1.54287000
Si      -3.74731000       1.54502000      -1.54287000
Si       3.73790000       1.54502000      -1.54287000
Si      -1.55444000       3.73790000      -1.54287000
Si      -3.74731000       1.54502000       1.54287000
Si      -3.74731000      -1.55444000       1.54287000
Si      -1.55444000       3.73790000       1.54287000
Al      -3.74731000      -1.55444000      -1.54287000
O        4.93452000       2.06206000      -2.48850000
O       -2.42318000      -2.42318000      -1.83154000
O       -0.00471000      -3.44746000      -1.85742000
O        2.06206000       4.93452000       2.48850000
O        2.41376000       2.41376000      -1.83154000
O        1.70896000       4.16526000       0.00000000
O        2.41376000      -2.42318000       1.83154000
O       -0.00471000       3.43804000      -1.85742000
O        2.06206000       4.93452000      -2.48850000
O        4.16526000      -1.71838000       0.00000000
O        3.43804000      -0.00471000       1.85742000
O       -1.71838000       4.16526000       0.00000000
O       -2.07148000       4.93452000      -2.48850000
O       -2.42318000       2.41376000       1.83154000
O       -3.44746000      -0.00471000       1.85742000
O       -4.94394000       2.06206000       2.48850000
O        4.93452000      -2.07148000       2.48850000
O       -2.42318000      -2.42318000       1.83154000
O       -1.71838000      -4.17468000       0.00000000
O       -0.00471000      -3.44746000       1.85742000
O       -2.07148000      -4.94394000       2.48850000
O        1.70896000      -4.17468000       0.00000000
O        2.06206000      -4.94394000       2.48850000
O        2.41376000       2.41376000       1.83154000
O       -0.00471000       3.43804000       1.85742000
O       -2.07148000      -4.94394000      -2.48850000
O       -4.17468000      -1.71838000       0.00000000
O       -4.94394000      -2.07148000       2.48850000
O       -2.07148000       4.93452000       2.48850000
O       -4.94394000      -2.07148000      -2.48850000
O        2.41376000      -2.42318000      -1.83154000
O        3.43804000      -0.00471000      -1.85742000
O        4.93452000      -2.07148000      -2.48850000
O        2.06206000      -4.94394000      -2.48850000
O        4.16526000       1.70896000       0.00000000
O        4.93452000       2.06206000       2.48850000
O       -2.42318000       2.41376000      -1.83154000
O       -4.17468000       1.70896000       0.00000000
O       -3.44746000      -0.00471000      -1.85742000
O       -4.94394000       2.06206000      -2.48850000
H        5.66271000       2.37670000      -3.06395000
H        2.37670000       5.66271000       3.06395000
H        2.37670000       5.66271000      -3.06395000
H       -2.38612000       5.66271000      -3.06395000
H       -5.67213000       2.37670000       3.06395000
H        5.66271000      -2.38612000       3.06395000
H       -2.38612000      -5.67213000       3.06395000
H        2.37670000      -5.67213000       3.06395000
H       -2.38612000      -5.67213000      -3.06395000
H       -5.67213000      -2.38612000       3.06395000
H       -2.38612000       5.66271000       3.06395000
H       -5.67213000      -2.38612000      -3.06395000
H        5.66271000      -2.38612000      -3.06395000
H        2.37670000      -5.67213000      -3.06395000
H        5.66271000       2.37670000       3.06395000
H       -5.67213000       2.37670000      -3.06395000
