73
Properties=species:S:1:pos:R:3 pbc="F F F"
Sr       0.70827000      -0.10447000       0.15632000
Si       1.55667000       3.73973000      -1.54287000
Al       3.74954000      -1.55260000       1.54287000
Si      -1.54279000      -3.74548000       1.54287000
Si       1.55667000      -3.74548000       1.54287000
Si       1.55667000       3.73973000       1.54287000
Si      -1.54279000      -3.74548000      -1.54287000
Al       3.74954000      -1.55260000      -1.54287000
Si       1.55667000      -3.74548000      -1.54287000
Si       3.74954000       1.54685000       1.54287000
Si      -3.73567000       1.54685000      -1.54287000
Si       3.74954000       1.54685000      -1.54287000
Si      -1.54279000       3.73973000      -1.54287000
Si      -3.73567000       1.54685000       1.54287000
Si      -3.73567000      -1.55260000       1.54287000
Si      -1.54279000       3.73973000       1.54287000
Si      -3.73567000      -1.55260000      -1.54287000
O        4.94617000       2.06390000      -2.48850000
O       -2.41153000      -2.42134000      -1.83154000
O        0.00694000      -3.44562000      -1.85742000
O        2.07371000       4.93636000       2.48850000
O        2.42541000       2.41560000      -1.83154000
O        1.72061000       4.16710000       0.00000000
O        2.42541000      -2.42134000       1.83154000
O        0.00694000       3.43987000      -1.85742000
O        2.07371000       4.93636000      -2.48850000
O        4.17691000      -1.71654000       0.00000000
O        3.44969000      -0.00287000       1.85742000
O       -1.70673000       4.16710000       0.00000000
O       -2.05983000       4.93636000      -2.48850000
O       -2.41153000       2.41560000       1.83154000
O       -3.43581000      -0.00287000       1.85742000
O       -4.93229000       2.06390000       2.48850000
O        4.94617000      -2.06964000       2.48850000
O       -2.41153000      -2.42134000       1.83154000
O       -1.70673000      -4.17284000       0.00000000
O        0.00694000      -3.44562000       1.85742000
O       -2.05983000      -4.94210000       2.48850000
O        1.72061000      -4.17284000       0.00000000
O        2.07371000      -4.94210000       2.48850000
O        2.42541000       2.41560000       1.83154000
O        0.00694000       3.43987000       1.85742000
O       -2.05983000      -4.94210000      -2.48850000
O       -4.16303000      -1.71654000       0.00000000
O       -4.93229000      -2.06964000       2.48850000
O       -2.05983000       4.93636000       2.48850000
O       -4.93229000      -2.06964000      -2.48850000
O        2.42541000      -2.42134000      -1.83154000
O        3.44969000      -0.00287000      -1.85742000
O        4.94617000      -2.06964000      -2.48850000
O        2.07371000      -4.94210000      -2.48850000
O        4.17691000       1.71079000       0.00000000
O        4.94617000       2.06390000       2.48850000
O       -2.41153000       2.41560000      -1.83154000
O       -4.16303000       1.71079000       0.00000000
O       -3.43581000      -0.00287000      -1.85742000
O       -4.93229000       2.06390000      -2.48850000
H        5.67436000       2.37854000      -3.06395000
H        2.38835000       5.66455000       3.06395000
H        2.38835000       5.66455000      -3.06395000
H       -2.37447000       5.66455000      -3.06395000
H       -5.66048000       2.37854000       3.06395000
H        5.67436000      -2.38428000       3.06395000
H       -2.37447000      -5.67029000       3.06395000
H        2.38835000      -5.67029000       3.06395000
H       -2.37447000      -5.67029000      -3.06395000
H       -5.66048000      -2.38428000       3.06395000
H       -2.37447000       5.66455000       3.06395000
H       -5.66048000      -2.38428000      -3.06395000
H        5.67436000      -2.38428000      -3.06395000
H        2.38835000      -5.67029000      -3.06395000
H        5.67436000       2.37854000       3.06395000
H       -5.66048000       2.37854000      -3.06395000
