73
Properties=species:S:1:pos:R:3 pbc="F F F"
Ba      -0.72004000       0.25159000       0.39162000
Si       1.54492000       3.74067000      -1.54013000
Si       3.73790000      -1.55168000       1.54563000
Al      -1.55444000      -3.74458000       1.54564000
Si       1.54502000      -3.74458000       1.54563000
Si       1.54451000       3.74079000       1.54571000
Si      -1.55438000      -3.74458000      -1.54009000
Si       3.73790000      -1.55168000      -1.54012000
Si       1.54502000      -3.74457000      -1.54012000
Si       3.73789000       1.54776000       1.54561000
Si      -3.74731000       1.54779000      -1.54012000
Si       3.73790000       1.54775000      -1.54012000
Si      -1.55445000       3.74066000      -1.54012000
Al      -3.74731000       1.54779000       1.54563000
Si      -3.74731000      -1.55168000       1.54563000
Si      -1.55445000       3.74068000       1.54564000
Si      -3.74730000      -1.55167000      -1.54010000
O        4.93452000       2.06484000      -2.48574000
O       -2.42318000      -2.42043000      -1.82883000
O       -0.00471000      -3.44469000      -1.85467000
O        2.06249000       4.93725000       2.49105000
O        2.41378000       2.41654000      -1.82881000
O        1.70910000       4.16797000       0.00275000
O        2.41376000      -2.42042000       1.83428000
O       -0.00470000       3.44078000      -1.85466000
O        2.06208000       4.93729000      -2.48574000
O        4.16526000      -1.71562000       0.00275000
O        3.43804000      -0.00195000       1.86016000
O       -1.71837000       4.16801000       0.00275000
O       -2.07146000       4.93727000      -2.48577000
O       -2.42317000       2.41651000       1.83427000
O       -3.44746000      -0.00195000       1.86016000
O       -4.94394000       2.06482000       2.49125000
O        4.93452000      -2.06872000       2.49125000
O       -2.42318000      -2.42042000       1.83427000
O       -1.71841000      -4.17191000       0.00275000
O       -0.00471000      -3.44468000       1.86014000
O       -2.07148000      -4.94118000       2.49125000
O        1.70896000      -4.17192000       0.00275000
O        2.06206000      -4.94118000       2.49125000
O        2.41381000       2.41653000       1.83430000
O       -0.00468000       3.44076000       1.86013000
O       -2.07151000      -4.94117000      -2.48575000
O       -4.17468000      -1.71562000       0.00275000
O       -4.94394000      -2.06872000       2.49125000
O       -2.07148000       4.93728000       2.49125000
O       -4.94394000      -2.06872000      -2.48576000
O        2.41376000      -2.42042000      -1.82879000
O        3.43804000      -0.00195000      -1.85467000
O        4.93452000      -2.06872000      -2.48575000
O        2.06206000      -4.94118000      -2.48575000
O        4.16526000       1.71173000       0.00275000
O        4.93452000       2.06482000       2.49125000
O       -2.42317000       2.41651000      -1.82878000
O       -4.17468000       1.71171000       0.00275000
O       -3.44746000      -0.00195000      -1.85467000
O       -4.94394000       2.06482000      -2.48575000
H        5.66271000       2.37946000      -3.06120000
H        2.37658000       5.66543000       3.06682000
H        2.37669000       5.66547000      -3.06121000
H       -2.38613000       5.66547000      -3.06119000
H       -5.67213000       2.37946000       3.06670000
H        5.66271000      -2.38336000       3.06670000
H       -2.38612000      -5.66937000       3.06670000
H        2.37670000      -5.66937000       3.06670000
H       -2.38611000      -5.66938000      -3.06120000
H       -5.67213000      -2.38336000       3.06670000
H       -2.38612000       5.66547000       3.06670000
H       -5.67213000      -2.38336000      -3.06120000
H        5.66271000      -2.38336000      -3.06120000
H        2.37670000      -5.66937000      -3.06120000
H        5.66271000       2.37946000       3.06670000
H       -5.67213000       2.37946000      -3.06120000
