73
Properties=species:S:1:pos:R:3 pbc="F F F"
Ba      -0.01575000      -0.21885000       0.07247000
Si       1.54973000       3.73594000      -1.54012000
Si       3.74261000      -1.55639000       1.54562000
Al      -1.54973000      -3.74927000       1.54562000
Al       1.54973000      -3.74927000       1.54562000
Si       1.54973000       3.73594000       1.54562000
Si      -1.54973000      -3.74927000      -1.54012000
Si       3.74261000      -1.55639000      -1.54012000
Si       1.54973000      -3.74927000      -1.54012000
Si       3.74261000       1.54307000       1.54562000
Si      -3.74260000       1.54307000      -1.54012000
Si       3.74261000       1.54307000      -1.54012000
Si      -1.54973000       3.73594000      -1.54012000
Si      -3.74260000       1.54307000       1.54562000
Si      -3.74260000      -1.55639000       1.54562000
Si      -1.54973000       3.73594000       1.54562000
Si      -3.74260000      -1.55639000      -1.54012000
O        4.93923000       2.06011000      -2.48575000
O       -2.41847000      -2.42513000      -1.82879000
O        0.00000000      -3.44941000      -1.85467000
O        2.06677000       4.93257000       2.49125000
O        2.41847000       2.41181000      -1.82879000
O        1.71367000       4.16331000       0.00275000
O        2.41847000      -2.42513000       1.83428000
O        0.00000000       3.43609000      -1.85467000
O        2.06677000       4.93257000      -2.48575000
O        4.16997000      -1.72033000       0.00275000
O        3.44275000      -0.00666000       1.86016000
O       -1.71367000       4.16331000       0.00275000
O       -2.06677000       4.93257000      -2.48575000
O       -2.41847000       2.41181000       1.83428000
O       -3.44275000      -0.00666000       1.86016000
O       -4.93923000       2.06011000       2.49125000
O        4.93923000      -2.07343000       2.49125000
O       -2.41847000      -2.42513000       1.83428000
O       -1.71367000      -4.17663000       0.00275000
O        0.00000000      -3.44941000       1.86016000
O       -2.06677000      -4.94589000       2.49125000
O        1.71367000      -4.17663000       0.00275000
O        2.06677000      -4.94589000       2.49125000
O        2.41847000       2.41181000       1.83428000
O        0.00000000       3.43609000       1.86016000
O       -2.06677000      -4.94589000      -2.48575000
O       -4.16997000      -1.72033000       0.00275000
O       -4.93923000      -2.07343000       2.49125000
O       -2.06677000       4.93257000       2.49125000
O       -4.93923000      -2.07343000      -2.48575000
O        2.41847000      -2.42513000      -1.82879000
O        3.44275000      -0.00666000      -1.85467000
O        4.93923000      -2.07343000      -2.48575000
O        2.06677000      -4.94589000      -2.48575000
O        4.16997000       1.70701000       0.00275000
O        4.93923000       2.06011000       2.49125000
O       -2.41847000       2.41181000      -1.82879000
O       -4.16997000       1.70701000       0.00275000
O       -3.44275000      -0.00666000      -1.85467000
O       -4.93923000       2.06011000      -2.48575000
H        5.66742000       2.37475000      -3.06120000
H        2.38141000       5.66076000       3.06670000
H        2.38141000       5.66076000      -3.06120000
H       -2.38141000       5.66076000      -3.06120000
H       -5.66742000       2.37475000       3.06670000
H        5.66742000      -2.38807000       3.06670000
H       -2.38141000      -5.67408000       3.06670000
H        2.38141000      -5.67408000       3.06670000
H       -2.38141000      -5.67408000      -3.06120000
H       -5.66742000      -2.38807000       3.06670000
H       -2.38141000       5.66076000       3.06670000
H       -5.66742000      -2.38807000      -3.06120000
H        5.66742000      -2.38807000      -3.06120000
H        2.38141000      -5.67408000      -3.06120000
H        5.66742000       2.37475000       3.06670000
H       -5.66742000       2.37475000      -3.06120000
