109
Properties=species:S:1:pos:R:3 pbc="F F F"
Na      -0.02801900      -0.00002900       0.01634000
Si      -2.17091000       0.00000000       4.06595000
Si      -1.50404000       3.75511000      -2.92983000
Si       2.30443000       4.56143000      -0.09486000
Si      -4.56439000      -2.30739000      -0.09486000
Al      -4.51104000       0.00000000       1.96979000
Si       1.49811000      -3.75511000      -2.92983000
Si      -2.31035000      -4.56142000      -0.09486000
Si      -0.00296000       2.16795000       4.06595000
Si       1.49811000       3.75511000      -2.92983000
Si      -2.31035000       4.56143000      -0.09486000
Si      -0.00296100       4.50808000       1.96979000
Si      -0.00296000      -2.16795000       4.06595000
Si       3.75215000       1.50108000      -2.92983000
Si      -1.50404000      -3.75511000      -2.92983000
Si       2.30443000      -4.56142000      -0.09486000
Si      -0.00296000      -4.50807000       1.96979000
Si      -3.75807000      -1.50107000      -2.92983000
Si      -4.56439000       2.30739000      -0.09486000
Si      -3.75807000       1.50108000      -2.92983000
Si       4.55846000      -2.30739000      -0.09486000
Si       2.16499000       0.00000000       4.06595000
Si       3.75215000      -1.50107000      -2.92983000
Si       4.55846000       2.30739000      -0.09486000
Si       4.50511000       0.00000000       1.96979000
O       -4.75596000       1.90484000      -4.12681000
O        4.50996000      -1.54957000      -1.51234000
O        4.15470000      -1.30950000       1.10212000
O        6.05954000      -2.83604000       0.16000000
O        3.57028000       0.00000000       3.28132000
O        2.46933000       0.00000000       5.64666000
O        4.75004000      -1.90484000      -4.12681000
O       -1.31246000       4.15766000       1.10212000
O       -6.06546000       0.00000000       2.38788000
O        1.54661000      -4.51292000      -1.51234000
O       -4.16062000       1.30950000       1.10212000
O       -3.57620000       0.00000000       3.28132000
O       -2.47525000       0.00000000       5.64666000
O       -1.55254000       4.51293000      -1.51234000
O       -1.31731000      -1.31435000       3.69368000
O       -1.31731000       1.31435000       3.69368000
O       -1.90780000       4.75300000      -4.12681000
O       -0.00296000       3.22646000      -3.18469000
O       -4.75596000      -1.90484000      -4.12681000
O       -3.22942000       0.00000000      -3.18469000
O        4.15470000       1.30950000       1.10212000
O        6.05954000       2.83604000       0.16000000
O        6.05954000       0.00000000       2.38788000
O       -2.83900000       6.06250000       0.16000000
O       -3.57499000       3.57203000      -0.12063000
O       -0.00295900       6.06250000       2.38788000
O       -0.00296000      -3.57324000       3.28132000
O       -0.00296000      -2.47229000       5.64666000
O       -2.49344000       2.49048000      -2.90405000
O        1.54661000       4.51293000      -1.51234000
O        1.30654000       4.15766000       1.10212000
O        2.83308000       6.06250000       0.16000000
O        3.56906000       3.57203000      -0.12063000
O       -4.51589000      -1.54957000      -1.51234000
O       -4.16062000      -1.30950000       1.10212000
O       -6.06546000      -2.83604000       0.16000000
O       -3.57499000      -3.57202000      -0.12063000
O        1.90188000      -4.75300000      -4.12681000
O       -4.51589000       1.54958000      -1.51234000
O       -6.06546000       2.83604000       0.16000000
O        1.31139000      -1.31435000       3.69368000
O        4.50996000       1.54958000      -1.51234000
O        4.75004000       1.90484000      -4.12681000
O        3.22350000       0.00000000      -3.18469000
O       -1.90780000      -4.75300000      -4.12681000
O       -2.49344000      -2.49047000      -2.90405000
O        1.30654000      -4.15766000       1.10212000
O        2.83308000      -6.06250000       0.16000000
O        3.56906000      -3.57202000      -0.12063000
O       -0.00296000      -6.06250000       2.38788000
O       -0.00296000      -3.22646000      -3.18469000
O        2.48751000      -2.49047000      -2.90405000
O       -1.55254000      -4.51292000      -1.51234000
O       -1.31246000      -4.15766000       1.10212000
O       -2.83900000      -6.06250000       0.16000000
O       -0.00296000       3.57324000       3.28132000
O       -0.00296000       2.47229000       5.64666000
O        1.31139000       1.31435000       3.69368000
O        1.90188000       4.75300000      -4.12681000
O        2.48751000       2.49048000      -2.90405000
H       -5.36343000       2.15063000      -4.85548000
H        6.97226000      -3.15748000       0.31496000
H        2.65460000       0.00000000       6.60898000
H        5.35751000      -2.15063000      -4.85548000
H       -7.01183000       0.00000000       2.64242000
H       -2.66053000       0.00000000       6.60898000
H       -2.15359000       5.36047000      -4.85548000
H       -5.36343000      -2.15063000      -4.85548000
H        6.97226000       3.15748000       0.31496000
H        7.00590000       0.00000000       2.64242000
H       -3.16044000       6.97522000       0.31496000
H       -0.00296000       7.00887000       2.64242000
H       -0.00296000      -2.65757000       6.60898000
H        3.15452000       6.97522000       0.31496000
H       -6.97818000      -3.15748000       0.31496000
H        2.14767000      -5.36047000      -4.85548000
H       -6.97818000       3.15748000       0.31496000
H        5.35751000       2.15063000      -4.85548000
H       -2.15359000      -5.36047000      -4.85548000
H        3.15452000      -6.97522000       0.31496000
H       -0.00296000      -7.00887000       2.64242000
H       -3.16044000      -6.97522000       0.31496000
H       -0.00296000       2.65757000       6.60898000
H        2.14767000       5.36047000      -4.85548000
