109
Properties=species:S:1:pos:R:3 pbc="F F F"
Ba       0.25749000       0.48923000       0.38051000
Si      -2.16662000       0.00133000       4.06955000
Si      -1.49974000       3.75645000      -2.92623000
Si       2.30872000       4.56276000      -0.09127000
Si      -4.56009000      -2.30605000      -0.09127000
Si      -4.50674000       0.00133000       1.97338000
Si       1.50241000      -3.75378000      -2.92623000
Si      -2.30605000      -4.56009000      -0.09127000
Al       0.00133000       2.16928000       4.06955000
Si       1.50241000       3.75645000      -2.92623000
Si      -2.30605000       4.56276000      -0.09127000
Si       0.00133000       4.50941000       1.97339000
Si       0.00133000      -2.16662000       4.06955000
Si       3.75645000       1.50241000      -2.92623000
Si      -1.49974000      -3.75378000      -2.92623000
Si       2.30872000      -4.56009000      -0.09127000
Si       0.00133000      -4.50674000       1.97339000
Si      -3.75378000      -1.49974000      -2.92623000
Si      -4.56009000       2.30872000      -0.09127000
Si      -3.75378000       1.50241000      -2.92623000
Si       4.56276000      -2.30605000      -0.09127000
Al       2.16928000       0.00133000       4.06955000
Si       3.75645000      -1.49974000      -2.92623000
Si       4.56276000       2.30872000      -0.09127000
Si       4.50941000       0.00133000       1.97339000
O       -4.75167000       1.90617000      -4.12321000
O        4.51426000      -1.54824000      -1.50875000
O        4.15900000      -1.30817000       1.10572000
O        6.06383000      -2.83470000       0.16359000
O        3.57457000       0.00133000       3.28492000
O        2.47362000       0.00133000       5.65025000
O        4.75433000      -1.90350000      -4.12321000
O       -1.30817000       4.15900000       1.10572000
O       -6.06117000       0.00133000       2.39148000
O        1.55091000      -4.51159000      -1.50875000
O       -4.15633000       1.31083000       1.10572000
O       -3.57190000       0.00133000       3.28492000
O       -2.47095000       0.00133000       5.65025000
O       -1.54824000       4.51426000      -1.50875000
O       -1.31302000      -1.31302000       3.69728000
O       -1.31302000       1.31568000       3.69728000
O       -1.90350000       4.75433000      -4.12321000
O        0.00133000       3.22780000      -3.18109000
O       -4.75167000      -1.90350000      -4.12321000
O       -3.22513000       0.00133000      -3.18109000
O        4.15900000       1.31083000       1.10572000
O        6.06383000       2.83737000       0.16359000
O        6.06383000       0.00133000       2.39148000
O       -2.83470000       6.06383000       0.16359000
O       -3.57069000       3.57336000      -0.11704000
O        0.00133000       6.06383000       2.39148000
O        0.00133000      -3.57190000       3.28492000
O        0.00133000      -2.47095000       5.65025000
O       -2.48914000       2.49181000      -2.90046000
O        1.55091000       4.51426000      -1.50875000
O        1.31083000       4.15900000       1.10572000
O        2.83737000       6.06383000       0.16359000
O        3.57336000       3.57336000      -0.11704000
O       -4.51159000      -1.54824000      -1.50875000
O       -4.15633000      -1.30817000       1.10572000
O       -6.06117000      -2.83470000       0.16359000
O       -3.57069000      -3.57069000      -0.11704000
O        1.90617000      -4.75167000      -4.12321000
O       -4.51159000       1.55091000      -1.50875000
O       -6.06117000       2.83737000       0.16359000
O        1.31568000      -1.31302000       3.69728000
O        4.51426000       1.55091000      -1.50875000
O        4.75433000       1.90617000      -4.12321000
O        3.22780000       0.00133000      -3.18109000
O       -1.90350000      -4.75167000      -4.12321000
O       -2.48914000      -2.48914000      -2.90046000
O        1.31083000      -4.15633000       1.10572000
O        2.83737000      -6.06117000       0.16359000
O        3.57336000      -3.57069000      -0.11704000
O        0.00133000      -6.06117000       2.39148000
O        0.00133000      -3.22513000      -3.18109000
O        2.49181000      -2.48914000      -2.90046000
O       -1.54824000      -4.51159000      -1.50875000
O       -1.30817000      -4.15633000       1.10572000
O       -2.83470000      -6.06117000       0.16359000
O        0.00133000       3.57457000       3.28492000
O        0.00133000       2.47362000       5.65025000
O        1.31568000       1.31568000       3.69728000
O        1.90617000       4.75433000      -4.12321000
O        2.49181000       2.49181000      -2.90046000
H       -5.35914000       2.15197000      -4.85189000
H        6.97656000      -3.15615000       0.31856000
H        2.65890000       0.00133000       6.61258000
H        5.36181000      -2.14930000      -4.85189000
H       -7.00753000       0.00133000       2.64601000
H       -2.65623000       0.00133000       6.61258000
H       -2.14930000       5.36181000      -4.85189000
H       -5.35914000      -2.14930000      -4.85189000
H        6.97656000       3.15881000       0.31856000
H        7.01020000       0.00133000       2.64601000
H       -3.15615000       6.97656000       0.31856000
H        0.00133000       7.01020000       2.64601000
H        0.00133000      -2.65623000       6.61258000
H        3.15881000       6.97656000       0.31856000
H       -6.97389000      -3.15615000       0.31856000
H        2.15197000      -5.35914000      -4.85189000
H       -6.97389000       3.15881000       0.31856000
H        5.36181000       2.15197000      -4.85189000
H       -2.14930000      -5.35914000      -4.85189000
H        3.15881000      -6.97389000       0.31856000
H        0.00133000      -7.00753000       2.64601000
H       -3.15615000      -6.97389000       0.31856000
H        0.00133000       2.65890000       6.61258000
H        2.15197000       5.36181000      -4.85189000
