55
Properties=species:S:1:pos:R:3 pbc="F F F"
Na       0.09543500      -1.39565100      -1.32849400
Al       1.54204300       0.46587200      -3.08198100
Si      -3.09855800      -1.20708300      -0.96780700
Si       1.54483500       2.88632100      -1.12458700
Si      -1.53801900      -0.46458100       3.07391100
Si       3.10246900       1.20852700       0.95964000
Si       3.10263500      -1.20705600      -0.96780800
Si      -1.53803200       0.46577000      -3.08196100
Si       1.54471600      -2.88522500       1.11692000
Si      -3.09848000       1.20852000       0.95967000
Si       1.54201400      -0.46457900       3.07390800
Si      -1.54057500       2.88646200      -1.12494300
Si      -1.54078400      -2.88509500       1.11695600
O        3.55254200       0.00056300      -0.00393700
O        2.00565500      -2.11461400      -0.21845200
O        4.38692000       2.10837000       1.32597000
O        0.00198800       0.00572200      -2.98925100
O        1.98381100       0.55277800      -4.62823600
O       -2.46534100      -0.60816300      -2.32161500
O        1.71439600       1.91054800      -2.39563500
O        2.46924100      -0.60865000      -2.32170600
O       -2.00165400      -2.11515300      -0.21864000
O       -4.38286200      -2.10727900      -1.33389800
O       -3.54855200       0.00056200      -0.00394200
O        2.00566600       2.11603500       0.21056100
O        0.00199000       3.32382700      -0.98809500
O        2.45556200       4.19623900      -1.33412900
O        0.00199900      -0.00444000       2.98142000
O       -1.97980000      -0.55158000       4.62026000
O       -1.71036100      -1.90935900       2.38767100
O       -2.46536000       0.60950000       2.31368000
O        2.46935900       0.60949100       2.31368900
O        4.38685300      -2.10727900      -1.33391000
O       -1.97979900       0.55278900      -4.62824000
O       -1.71042500       1.91053700      -2.39562600
O        1.71437900      -1.90935000       2.38765900
O        0.00200200      -3.32259300       0.98005400
O        2.45565800      -4.19501300       1.32593200
O       -2.00168100       2.11603100       0.21056000
O       -4.38293000       2.10837000       1.32594000
O        1.98379000      -0.55158000       4.62026000
O       -2.45181000       4.19611000      -1.33387000
O       -2.45164100      -4.19501400       1.32594200
H        5.16831000       2.65625000       1.54880000
H        2.25260000       0.60572300      -5.56917000
H       -5.16432800      -2.65503300      -1.55679000
H        3.01043900       4.99397100      -1.46121100
H       -2.24861000      -0.60451000       5.56118000
H        5.16832900      -2.65503100      -1.55679100
H       -2.24861000       0.60572100      -5.56917000
H        3.01042100      -4.99276900       1.45323900
H       -5.16431000       2.65625000       1.54880000
H        2.25260000      -0.60451000       5.56118000
H       -3.00638000       4.99400000      -1.46125000
H       -3.00642100      -4.99277000       1.45323900
