55
Properties=species:S:1:pos:R:3 pbc="F F F"
Sr       0.03438500      -0.13798300      -0.38643600
Si       0.57248000       0.30960000       3.43290000
Al       0.57248000      -0.30805000      -3.43819000
Si      -2.87874000      -1.53355000       0.23946000
Si      -0.46102000       2.27726000      -2.15562000
Si      -1.19567000      -2.62474000      -2.15562000
Si      -1.19567000       2.62628000       2.15032000
Si      -0.46102000      -2.27572000       2.15032000
Si      -2.87874000       1.53510000      -0.24476000
Si       2.76815000      -0.94825000      -1.24321000
Si       1.22205000      -3.36690000      -0.24476000
Si       1.22205000       3.36845000       0.23946000
Al       2.76815000       0.94980000       1.23791000
O       -1.74355000       3.66551000       3.27883000
O       -2.42633000       2.19393000       1.17388000
O       -0.03558000      -3.35122000      -1.27722000
O       -0.59176000       1.30176000       2.87464000
O        0.86095000       0.63803000       4.99960000
O       -0.59176000      -1.30022000      -2.87994000
O        0.08686000      -1.23649000       3.27883000
O        1.93803000       0.53313000       2.57451000
O        0.86095000      -0.63649000      -5.00490000
O        0.08686000       1.23804000      -3.28413000
O        1.93803000      -0.53158000      -2.57981000
O       -4.10732000      -2.39827000       0.86974000
O       -2.42633000      -2.19238000      -1.17918000
O       -1.62111000      -1.54924000       1.27192000
O       -3.36436000       0.00077000      -0.00265000
O       -1.06493000       3.60178000      -2.87994000
O        0.76964000       2.70962000      -1.17918000
O       -1.62111000       1.55078000      -1.27722000
O       -1.74355000      -3.66396000      -3.28413000
O       -0.03558000       3.35276000       1.27192000
O       -1.06493000      -3.60024000       2.87464000
O        0.76964000      -2.70807000       1.17388000
O       -4.10732000       2.39981000      -0.87504000
O        2.31158000       0.00077000      -0.00265000
O        4.35990000      -0.76198000      -1.51933000
O        2.45063000      -2.50219000      -0.87504000
O        1.70767000      -4.90123000      -0.00265000
O        2.45063000       2.50373000       0.86974000
O        1.70767000       4.90277000      -0.00265000
O        4.35990000       0.76352000       1.51403000
H       -2.07315000       4.29070000       3.95773000
H        1.03475000       0.83592000       5.94355000
H        1.03475000      -0.83437000      -5.94885000
H       -4.84632000      -2.91840000       1.24887000
H       -1.42892000       4.40010000      -3.31651000
H       -2.07315000      -4.28915000      -3.96303000
H       -1.42892000      -4.39856000       3.31121000
H       -4.84632000       2.91995000      -1.25416000
H        5.31913000      -0.64972000      -1.68573000
H        2.00010000      -5.82515000       0.14314000
H        2.00010000       5.82669000      -0.14844000
H        5.31913000       0.65127000       1.68043000
