109
Properties=species:S:1:pos:R:3 pbc="F F F"
Sr       0.04298400      -0.44977900      -0.64417900
Si      -1.52696700      -4.42501500       1.26054700
Al      -4.59210000      -0.89018000      -1.25560000
Si      -3.06599000      -3.53348000      -1.25560000
Si      -3.06427000      -0.00908000      -3.74648000
Si      -1.53902000      -2.65089000      -3.74648000
Si      -3.06857000       0.00136000       3.73738000
Si       1.52697000      -4.42501200       1.26054900
Si      -1.53213900      -2.65983000       3.73738100
Si      -3.06771000       3.53321000       1.26055000
Si       3.06599000      -3.53348000      -1.25560000
Si      -1.52611100       4.42028000      -1.25559800
Si       1.53902000      -2.65089000      -3.74648000
Si      -1.52525000       2.65659000      -3.74648000
Si       1.53213000      -2.65983000       3.73738000
Si      -1.53644000       2.65509000       3.73738000
Si       4.59468000       0.88842000       1.26055000
Al       4.59210000      -0.89018000      -1.25560000
Si       3.06427000      -0.00908000      -3.74648000
Si       3.06857000       0.00136000       3.73738000
Si       3.06771000       3.53321000       1.26055000
Si       1.52610900       4.42028000      -1.25560000
Si       1.52525000       2.65659000      -3.74647900
Si       1.53644000       2.65509000       3.73738000
Si      -4.59468000       0.88842000       1.26055000
O        1.89193000       1.09118000       3.59135000
O        3.58072000      -0.03293000       5.26223000
O        2.49445000       3.51234000       2.76574000
O        4.30719000       4.55594000       1.17349000
O        1.90570000       4.00731000       0.25240000
O        2.50823000       5.59359000      -1.75827000
O        1.68707200       3.13962900      -2.21881200
O        4.27448000      -2.46900000      -1.30334000
O       -2.50995000      -1.44925000       3.32457000
O       -3.58072000      -0.03293000       5.26223000
O       -1.89193000       1.09118000       3.59135000
O        0.00000000      -4.11490800       0.85616200
O       -1.79552200      -3.91811900       2.76574000
O       -4.42426000      -0.35496000       0.25240000
O       -1.79294100      -6.00979900       1.17349000
O       -2.51855000      -3.65572900       0.25240000
O       -6.09927000      -0.62629000      -1.75827000
O       -3.56351000      -0.11046000      -2.21881000
O        6.09927000      -0.62629000      -1.75827000
O        3.56350000      -0.11046000      -2.21881000
O        2.50736000       3.51680900      -4.69003000
O        1.76282000       3.11577000       5.26223000
O       -6.10014000       1.45048000       1.17349000
O       -2.50822900       5.59359000      -1.75827200
O       -1.68707000       3.13963000      -2.21881000
O        0.00000000       4.93462000      -1.30334000
O        1.79294000      -3.93154000      -4.69003000
O        2.49273000      -1.44031000      -4.21825000
O       -4.27448000      -2.46900000      -1.30333900
O       -3.59105000      -4.97067000      -1.75827000
O       -1.87644000      -3.03255000      -2.21881000
O       -4.30031000       0.41135000      -4.69003000
O       -2.49273000      -1.44031000      -4.21825000
O       -1.90054000       1.09714000      -3.86161000
O       -1.79294000      -3.93154000      -4.69003000
O       -0.00086000      -2.19617000      -3.86161000
O       -4.28998000       0.40240000       2.76574000
O        1.79552000      -3.91812000       2.76574000
O        4.30031000       0.41135000      -4.69003000
O        1.90140000       1.09565000      -3.86161000
O       -2.50737000       3.51681000      -4.69003000
O        0.00000000       2.87723000      -4.21825000
O        2.50909000      -1.45074000       3.32457000
O        1.81790000      -3.08622000       5.26223000
O        0.00086000       2.89661000       3.32457000
O       -1.76282000       3.11577000       5.26223000
O        3.56264000       2.05577000       0.85616000
O        4.28998000       0.40240000       2.76574000
O        6.10013000       1.45048000       1.17349000
O        4.42425000      -0.35496000       0.25240000
O        1.79294000      -6.00980000       1.17349000
O        2.51855000      -3.65573000       0.25240000
O        0.00000000      -2.18574000       3.59135000
O       -1.81790000      -3.08622000       5.26223000
O       -3.56264000       2.05577000       0.85616000
O       -2.49445000       3.51234000       2.76574000
O       -4.30719000       4.55594000       1.17349000
O       -1.90570000       4.00731000       0.25240000
O        3.59105000      -4.97067000      -1.75827000
O        1.87643000      -3.03255000      -2.21881000
H        3.89267000      -0.05382000       6.19102000
H        5.06198000       5.17875000       1.12048000
H        3.10583000       6.30753000      -2.06414000
H       -3.89267000      -0.05382000       6.19102000
H       -1.95490900      -6.97487000       1.12048000
H       -7.01637000      -0.46573000      -2.06414000
H        7.01637000      -0.46573000      -2.06414000
H        3.10486000       4.04015000      -5.26406000
H        1.90070000       3.39637000       6.19102000
H       -7.01689000       1.79275000       1.12048000
H       -3.10583100       6.30753000      -2.06413900
H        1.94742000      -4.71065000      -5.26406000
H       -3.91054000      -5.84518000      -2.06414000
H       -5.05228000       0.66712000      -5.26406000
H       -1.94742000      -4.71065000      -5.26406000
H        5.05228000       0.66712000      -5.26406000
H       -3.10486000       4.04015000      -5.26406000
H        1.99197000      -3.34593000       6.19102000
H       -1.90070000       3.39637000       6.19102000
H        7.01689000       1.79275000       1.12048000
H        1.95491000      -6.97487000       1.12048000
H       -1.99197000      -3.34593000       6.19102000
H       -5.06198000       5.17875000       1.12048000
H        3.91054000      -5.84518000      -2.06414000
