55
Properties=species:S:1:pos:R:3 pbc="F F F"
Na      -0.06097800       0.21115900       0.59573600
Al       0.56967400       0.30931000       3.43986200
Si       0.56917700      -0.30843100      -3.43109100
Si      -2.88206300      -1.53392400       0.24661600
Si      -0.46435100       2.27689400      -2.14850300
Si      -1.19898000      -2.62511000      -2.14850900
Si      -1.19898600       2.62590300       2.15740700
Si      -0.46430400      -2.27616800       2.15729300
Si      -2.88205100       1.53476500      -0.23761600
Si       2.76483700      -0.94862200      -1.23612000
Si       1.21874700      -3.36727300      -0.23765200
Si       1.21875100       3.36806700       0.24656600
Si       2.76481100       0.94942500       1.24511700
O       -1.74686000       3.66514100       3.28592900
O       -2.42963100       2.19355200       1.18099300
O       -0.03888000      -3.35158900      -1.27012000
O       -0.59508300       1.30140300       2.88178700
O        0.85731900       0.63758900       5.00678500
O       -0.59507000      -1.30059000      -2.87284000
O        0.08352000      -1.23684900       3.28594500
O        1.93472500       0.53275300       2.58161700
O        0.85764000      -0.63686000      -4.99779000
O        0.08356800       1.23767100      -3.27701800
O        1.93472800      -0.53196400      -2.57269700
O       -4.11063300      -2.39863000       0.87683500
O       -2.42963100      -2.19274700      -1.17207500
O       -1.62443200      -1.54961300       1.27903500
O       -3.36767100       0.00039700       0.00444400
O       -1.06822400       3.60141500      -2.87283400
O        0.76632900       2.70925000      -1.17206900
O       -1.62442300       1.55038700      -1.27013900
O       -1.74686000      -3.66433000      -3.27702000
O       -0.03888000       3.35239000       1.27903000
O       -1.06824300      -3.60056000       2.88183200
O        0.76633300      -2.70843700       1.18099500
O       -4.11062500       2.39942000      -0.86795800
O        2.30826500       0.00041800       0.00442200
O        4.35660400      -0.76236700      -1.51221300
O        2.44732500      -2.50256100      -0.86792800
O        1.70437000      -4.90160000       0.00446000
O        2.44732100       2.50335900       0.87684600
O        1.70436900       4.90240100       0.00446200
O        4.35660600       0.76315300       1.52111100
H       -2.07646000       4.29032000       3.96483000
H        1.03147000       0.83555000       5.95064400
H        1.03145000      -0.83474000      -5.94174000
H       -4.84962000      -2.91877800       1.25597800
H       -1.43222800       4.39973000      -3.30941200
H       -2.07646000      -4.28952000      -3.95592000
H       -1.43223300      -4.39893100       3.31831500
H       -4.84962900       2.91957200      -1.24706000
H        5.31582000      -0.65009700      -1.67862000
H        1.99679000      -5.82552000       0.15024900
H        1.99679000       5.82632000      -0.14133100
H        5.31582000       0.65089900       1.68754000
