73
Properties=species:S:1:pos:R:3 pbc="F F F"
Sr      -1.31488300      -0.54229400       0.01089700
Si       1.54482000       3.74057000      -1.54287000
Si       3.73770000      -1.55176000       1.54287000
Al      -1.55463000      -3.74464000       1.54288300
Si       1.54482000      -3.74463900       1.54286700
Si       1.54482000       3.74057000       1.54287000
Si      -1.55463300      -3.74464000      -1.54287100
Si       3.73770000      -1.55176000      -1.54287000
Si       1.54482000      -3.74464000      -1.54287000
Si       3.73770000       1.54769000       1.54287000
Al      -3.74751000       1.54769000      -1.54287100
Si       3.73770000       1.54769000      -1.54287000
Si      -1.55463000       3.74057000      -1.54287000
Si      -3.74750900       1.54768900       1.54286900
Si      -3.74750200      -1.55179100       1.54286800
Si      -1.55463000       3.74057000       1.54287000
Si      -3.74752400      -1.55171800      -1.54287800
O        4.93432000       2.06474000      -2.48850000
O       -2.42337800      -2.42050000      -1.83153800
O       -0.00491000      -3.44478000      -1.85742000
O        2.06186000       4.93720000       2.48850000
O        2.41356000       2.41644000      -1.83154000
O        1.70876000       4.16794000       0.00000000
O        2.41356000      -2.42050000       1.83153900
O       -0.00491200       3.44072100      -1.85742000
O        2.06186000       4.93720000      -2.48850000
O        4.16506000      -1.71570000       0.00000000
O        3.43784000      -0.00203000       1.85742000
O       -1.71857000       4.16794000       0.00000000
O       -2.07168000       4.93720000      -2.48850000
O       -2.42338000       2.41644000       1.83153900
O       -3.44765200      -0.00203000       1.85742200
O       -4.94414000       2.06474000       2.48850000
O        4.93432000      -2.06880000       2.48850000
O       -2.42337700      -2.42049800       1.83153500
O       -1.71856500      -4.17200300       0.00000000
O       -0.00491000      -3.44478600       1.85742300
O       -2.07168600      -4.94126400       2.48849200
O        1.70876000      -4.17200000       0.00000000
O        2.06186000      -4.94125900       2.48850000
O        2.41356000       2.41644000       1.83154000
O       -0.00491000       3.44072000       1.85742000
O       -2.07168000      -4.94126000      -2.48850000
O       -4.17488800      -1.71567500       0.00000000
O       -4.94414100      -2.06879000       2.48850300
O       -2.07168000       4.93720000       2.48850000
O       -4.94412800      -2.06883600      -2.48849600
O        2.41356000      -2.42050000      -1.83154000
O        3.43784000      -0.00203000      -1.85742000
O        4.93432000      -2.06880000      -2.48850000
O        2.06186000      -4.94126000      -2.48850000
O        4.16506000       1.71164000       0.00000000
O        4.93432000       2.06474000       2.48850000
O       -2.42338000       2.41643900      -1.83153900
O       -4.17487900       1.71164000       0.00000000
O       -3.44765000      -0.00203200      -1.85742100
O       -4.94414000       2.06473900      -2.48849900
H        5.66251000       2.37938000      -3.06395000
H        2.37650000       5.66539000       3.06395000
H        2.37650000       5.66539000      -3.06395000
H       -2.38632000       5.66539000      -3.06395000
H       -5.67233000       2.37938000       3.06395000
H        5.66251000      -2.38344000       3.06395000
H       -2.38631800      -5.66944800       3.06395300
H        2.37650000      -5.66945000       3.06395000
H       -2.38632000      -5.66945000      -3.06395000
H       -5.67233100      -2.38344000       3.06394900
H       -2.38632000       5.66539000       3.06395000
H       -5.67233000      -2.38343800      -3.06395000
H        5.66251000      -2.38344000      -3.06395000
H        2.37650000      -5.66945000      -3.06395000
H        5.66251000       2.37938000       3.06395000
H       -5.67233000       2.37938000      -3.06395000
