63
Properties=species:S:1:pos:R:3 pbc="F F F"
C        2.34119400       1.13852600       1.52447900
C        1.90978000       2.28215200       2.41654300
O        0.57944500       2.11450500       2.87743900
C       -0.41717500       2.71145800       2.05914500
C       -1.77602900       2.10750100       2.33124300
N       -1.92367700       0.70145900       1.94310500
C       -3.30191200       0.42912100       1.53637800
C       -3.59264000       0.81713100       0.10981800
O       -2.81406400       0.01748100      -0.76737100
C       -3.16801000       0.24436100      -2.11929300
C       -2.19450400      -0.45770000      -3.01826900
O       -0.90870600       0.09425400      -2.80566500
C        0.01586400      -0.26879500      -3.81649300
C        1.34407900       0.38432300      -3.51882300
N        1.94112500      -0.08156400      -2.27618200
C        2.85791700       0.90193100      -1.70887300
C        2.13156200       1.83496800      -0.76343200
O        1.59135700       1.08920800       0.32182600
C        2.53193600      -1.40443500      -2.40501400
C        2.62601000      -2.13523600      -1.08788600
O        1.32723200      -2.32372200      -0.54903400
C        1.36461100      -3.09967300       0.63437400
C        0.03038800      -3.04269100       1.31744100
O       -0.22600500      -1.70757400       1.71786600
C       -1.31430800      -1.62295000       2.62300200
C       -1.52835300      -0.18708900       3.03659300
H        3.41210100       1.21856400       1.30808400
H        2.17290800       0.19003200       2.04059200
H        2.01831400       3.24316100       1.90096400
H        2.55612600       2.29877900       3.29747600
H       -0.16881300       2.58275200       1.00311600
H       -0.46328800       3.78782400       2.27013400
H       -2.48271700       2.70476800       1.75177900
H       -2.04576800       2.24754700       3.38926900
H       -3.50139700      -0.63804800       1.63443200
H       -4.02023200       0.94295200       2.19269800
H       -4.65767900       0.65224200      -0.09280200
H       -3.37678800       1.87629600      -0.07771000
H       -3.15124200       1.32075400      -2.33009600
H       -4.18071800      -0.12784600      -2.31441500
H       -2.18057200      -1.53669000      -2.81886500
H       -2.50688300      -0.30596200      -4.05777100
H       -0.34864800       0.08257700      -4.78915500
H        0.09820700      -1.36081600      -3.87002000
H        2.01406200       0.22846700      -4.37922100
H        1.17698000       1.46074400      -3.43870800
H        3.36736300       1.48286800      -2.49084600
H        3.63942400       0.38788300      -1.14566200
H        2.80362300       2.61609800      -0.39774900
H        1.29643500       2.32765100      -1.26969300
H        1.91489000      -2.00241900      -3.07713800
H        3.53772800      -1.36398000      -2.85157300
H        3.10304500      -3.10876300      -1.25333600
H        3.23862300      -1.58347200      -0.36390600
H        1.60701600      -4.14279400       0.39866000
H        2.13884400      -2.71351200       1.30857600
H       -0.76738000      -3.39468300       0.65111400
H        0.05852800      -3.70084200       2.19314800
H       -2.20705700      -2.06140800       2.16295400
H       -1.08657200      -2.21193100       3.51930800
H       -0.59875100       0.18703700       3.46113700
H       -2.27854100      -0.17823900       3.84408400
Na      -0.25348800      -0.26351200      -0.32986300
