63
Properties=species:S:1:pos:R:3 pbc="F F F"
C        0.38291200      -2.13752200       2.93371900
C       -1.03164900      -2.40627200       2.50613400
O       -1.60975300      -1.21474300       2.01088100
C       -2.97581500      -1.38038200       1.67402100
C       -3.55087400      -0.05986200       1.22020200
N       -2.99225000       0.42235800      -0.03813500
C       -3.24655100       1.84953000      -0.22775800
C       -2.40895800       2.76660300       0.63387500
O       -1.05430600       2.72523100       0.21916200
C       -0.24293100       3.62277800       0.95384300
C        1.16256100       3.58321300       0.42371000
O        1.74620300       2.32767900       0.71507900
C        3.05271600       2.20480900       0.17640300
C        3.67039900       0.89887700       0.62069600
N        3.03941400      -0.29163300       0.05493000
C        3.34192800      -1.46991700       0.86533700
C        2.52448700      -1.58509400       2.13072200
O        1.16399300      -1.80991100       1.80156600
C        3.46883000      -0.50042000      -1.32684500
C        2.52188300      -1.34675400      -2.14503400
O        1.32598800      -0.62169100      -2.38061000
C        0.43715700      -1.31516700      -3.23661500
C       -0.71190400      -0.41094900      -3.61105700
O       -1.51289600       0.00446800      -2.51872200
C       -2.34776500      -1.00772500      -1.98009100
C       -3.46051900      -0.36717500      -1.18218900
H        0.78336300      -3.03675300       3.41749900
H        0.41013100      -1.31737400       3.66231000
H       -1.05437500      -3.18579000       1.73360500
H       -1.59801900      -2.76978400       3.37241300
H       -3.07699400      -2.15049400       0.89851300
H       -3.53228900      -1.72453900       2.55458500
H       -3.35585000       0.67603600       2.00174000
H       -4.64505000      -0.16925100       1.15364500
H       -4.30540900       2.09310900      -0.04296300
H       -3.04234500       2.09700500      -1.27063500
H       -2.47634900       2.50726000       1.69709700
H       -2.79268800       3.78824600       0.52177200
H       -0.62859500       4.64474600       0.85572500
H       -0.25481500       3.35723900       2.01873100
H        1.16139600       3.75501300      -0.66012400
H        1.74211500       4.38658800       0.89453400
H        3.67972500       3.02810500       0.53990300
H        3.00739400       2.28492900      -0.91654600
H        4.74465300       0.92696500       0.37805400
H        3.59775600       0.85187100       1.70835100
H        3.15203800      -2.36414900       0.26950400
H        4.40854100      -1.49660300       1.13976700
H        2.60965500      -0.69109500       2.76026500
H        2.90575600      -2.43405400       2.71133600
H        3.55449700       0.46814000      -1.82169700
H        4.46813600      -0.96174800      -1.36317000
H        2.99880900      -1.58474700      -3.10374200
H        2.28910900      -2.29700300      -1.64901200
H        0.95272500      -1.60608400      -4.16057100
H        0.08256600      -2.23391900      -2.75186700
H       -1.33049700      -0.92514400      -4.35637500
H       -0.32036700       0.50294200      -4.06128300
H       -1.76991900      -1.69141200      -1.34360900
H       -2.78217600      -1.60293600      -2.79259400
H       -4.06150900       0.25650200      -1.85183500
H       -4.12000700      -1.17148400      -0.84422700
K        0.05742700       0.15554100       0.07114700
