63
Properties=species:S:1:pos:R:3 pbc="F F F"
C       -1.44039300       1.43300100       3.09659800
C       -2.40428200       0.31839500       2.76392200
O       -2.63416900       0.25107300       1.36456400
C       -3.35688900      -0.91158300       0.98023700
C       -3.56729200      -0.94844700      -0.52383200
N       -2.39944300      -1.33053100      -1.32193500
C       -2.18267000      -2.77759300      -1.28544800
C       -0.76871300      -3.22759900      -1.60228400
O        0.09784700      -2.93365400      -0.51757500
C        1.42748600      -3.37461200      -0.73433700
C        2.32500100      -2.93119200       0.39493200
O        2.58667600      -1.54166400       0.30211600
C        3.35572900      -1.04050800       1.38286500
C        3.68490000       0.42195400       1.15266900
N        2.55306600       1.34378000       1.26357800
C        2.23776200       1.61812600       2.66699600
C        0.82589400       2.10288900       2.94526200
O       -0.10419500       1.03500300       2.83087700
C        2.81291700       2.58131600       0.52461900
C        2.67466800       2.48348800      -0.98465900
O        1.30838600       2.36893800      -1.34805500
C        1.10069300       2.32918100      -2.75026800
C       -0.36562600       2.14320200      -3.05969100
O       -0.75738000       0.79625900      -2.84601100
C       -2.16470800       0.61245500      -2.90804500
C       -2.52174100      -0.84772200      -2.69904000
H       -1.54542000       1.68367300       4.15888600
H       -1.69419500       2.32833200       2.51444700
H       -3.35131400       0.50462100       3.28426900
H       -2.00553200      -0.63639500       3.13029300
H       -4.34033300      -0.90363100       1.46584100
H       -2.82935400      -1.80645700       1.33466400
H       -3.89709700       0.04453700      -0.83530900
H       -4.40915000      -1.62979800      -0.72459100
H       -2.86391900      -3.29137200      -1.98204100
H       -2.42965900      -3.14533900      -0.28789700
H       -0.78130300      -4.31089900      -1.77561700
H       -0.38905200      -2.75504000      -2.51726900
H        1.45194400      -4.46991400      -0.78952900
H        1.80758900      -2.98367200      -1.68716200
H        1.85872400      -3.16710800       1.36017300
H        3.26621900      -3.49102300       0.33143500
H        2.81582800      -1.19257300       2.32595200
H        4.29819400      -1.59805000       1.45230600
H        4.11086600       0.50644100       0.15153500
H        4.48609200       0.70269500       1.85466500
H        2.39002100       0.70399200       3.24376800
H        2.93473600       2.36468800       3.07984200
H        0.79601200       2.50440500       3.96562600
H        0.53682900       2.91716100       2.26848300
H        3.82461400       2.95864700       0.74388600
H        2.11660600       3.34827100       0.86877000
H        3.09507500       3.39544600      -1.42664600
H        3.23720900       1.63466600      -1.39314200
H        1.68435000       1.51579000      -3.20046800
H        1.43649800       3.27134700      -3.20011000
H       -0.54369700       2.41763900      -4.10638900
H       -0.96434400       2.81518900      -2.43139300
H       -2.53020000       0.92259300      -3.89466300
H       -2.65488900       1.25499600      -2.16465200
H       -1.86957900      -1.44294100      -3.34055800
H       -3.54600900      -1.00110600      -3.07310000
Cs       0.03850600       0.03744300      -0.01479700
