63
Properties=species:S:1:pos:R:3 pbc="F F F"
C       -1.47038800       1.56811100       3.08948500
C       -2.51591500       0.52681500       2.78907600
O       -2.56410000       0.28596800       1.39505800
C       -3.47406400      -0.74169300       1.03774100
C       -3.58384600      -0.85365000      -0.46934600
N       -2.38624500      -1.32005000      -1.17075700
C       -2.18571600      -2.75704400      -0.98057700
C       -0.84370700      -3.29043600      -1.44240400
O        0.20500200      -2.77796700      -0.63871200
C        1.48528400      -3.17869500      -1.08914900
C        2.52259100      -2.81207200      -0.06250000
O        2.68303800      -1.40622000       0.00220300
C        3.44448300      -1.00655500       1.13174900
C        3.67880500       0.48567600       1.09217400
N        2.47961900       1.30360000       1.29411000
C        2.20936200       1.45156200       2.72599100
C        0.84477200       2.00012700       3.09451200
O       -0.17349600       1.03049300       2.89419300
C        2.64600400       2.60993100       0.65464500
C        2.55765600       2.58254500      -0.85403200
O        1.23919000       2.26569100      -1.26731300
C        1.17342200       2.10154000      -2.67566500
C       -0.24476600       1.87275500      -3.11609000
O       -0.69785300       0.60793100      -2.67076400
C       -2.07926300       0.42156500      -2.93930100
C       -2.48544700      -0.99186900      -2.59341000
H       -1.58817300       1.89988400       4.12812200
H       -1.61618200       2.44060900       2.43939300
H       -3.48807700       0.89533700       3.13914800
H       -2.29069700      -0.40202400       3.32771300
H       -4.47067600      -0.50185700       1.42865600
H       -3.16111000      -1.68695700       1.49722800
H       -3.84257100       0.13459600      -0.85502400
H       -4.44204500      -1.50984700      -0.69028600
H       -2.96573600      -3.33482900      -1.50437500
H       -2.28852500      -2.98818800       0.08150100
H       -0.86816900      -4.38429600      -1.35817500
H       -0.64709100      -3.05400900      -2.49402700
H        1.51175500      -4.26636600      -1.22960800
H        1.71022900      -2.70717100      -2.05457200
H        2.21661500      -3.20019200       0.91702600
H        3.47355000      -3.28732700      -0.33305700
H        2.92709800      -1.31281000       2.04990100
H        4.41791100      -1.51231800       1.11882400
H        4.10925100       0.71912700       0.11839800
H        4.44910300       0.73309400       1.83865700
H        2.31695400       0.47359700       3.20019700
H        2.96170900       2.11023800       3.19021200
H        0.86759200       2.28966100       4.15212000
H        0.60466200       2.90209400       2.52007700
H        3.61307300       3.06206000       0.92813800
H        1.87275300       3.28773800       1.01803300
H        2.83560400       3.57158600      -1.23944700
H        3.25739100       1.85923500      -1.28895300
H        1.80613000       1.25809000      -2.98223500
H        1.55029800       3.00225600      -3.17549400
H       -0.28246600       1.92006500      -4.21187000
H       -0.89410600       2.66536600      -2.72376600
H       -2.27330900       0.58510500      -4.00700100
H       -2.66447700       1.16338100      -2.38164300
H       -1.84243300      -1.66167100      -3.16309200
H       -3.50874900      -1.15611500      -2.96602500
Rb       0.03281900      -0.00395900       0.11197000
