63
Properties=species:S:1:pos:R:3 pbc="F F F"
C       -0.93985700      -0.95422300      -3.12962700
C       -0.93431700      -2.18074800      -2.24592600
O       -0.97441400      -1.80474200      -0.87126300
C       -1.01902100      -2.88984000       0.05576500
C        0.36218500      -3.43876400       0.36852500
N        1.28487100      -2.43086000       0.92116600
C        2.62303100      -2.54453500       0.31650600
C        3.46470200      -1.29067400       0.40201800
O        2.84862400      -0.26072500      -0.37236000
C        3.63404700       0.92401100      -0.47118200
C        2.94143900       1.89848500      -1.38459100
O        1.67516300       2.24869000      -0.83301000
C        0.96989100       3.20721100      -1.61775200
C       -0.37693900       3.49168800      -0.99308100
N       -1.27927300       2.33495600      -0.89151600
C       -1.73319000       1.89883000      -2.21902200
C       -2.53615800       0.59022200      -2.18268500
O       -2.19212600      -0.30002900      -3.23641100
C       -2.43367900       2.68040300      -0.04410700
C       -2.15667700       2.60093900       1.44008500
O       -1.85731900       1.24695800       1.77998300
C       -1.75381500       1.02500300       3.18385300
C       -1.50253800      -0.43662700       3.43662100
O       -0.26229500      -0.81277000       2.84367400
C        0.11233400      -2.15893000       3.13162300
C        1.38070600      -2.50635200       2.38594600
H       -0.68426300      -1.27985100      -4.13890500
H       -0.15138200      -0.25402000      -2.82247800
H       -0.02196500      -2.74979000      -2.45309500
H       -1.79940400      -2.81253700      -2.46962800
H       -1.65171800      -3.68817800      -0.34150700
H       -1.51142400      -2.49698100       0.94708300
H        0.24820900      -4.28731100       1.05357800
H        0.78909800      -3.84021900      -0.55086700
H        3.19082000      -3.36812200       0.77002800
H        2.49477800      -2.78179500      -0.74015800
H        4.45463500      -1.50715000      -0.01045600
H        3.59923500      -0.94008100       1.43107500
H        4.61580100       0.68410700      -0.89037500
H        3.77768100       1.35778000       0.52507400
H        2.79719500       1.45926000      -2.37759500
H        3.56351100       2.79326300      -1.48316600
H        0.88406700       2.83768700      -2.64400700
H        1.53992400       4.14094500      -1.64361700
H       -0.84895700       4.29669700      -1.57391700
H       -0.20920200       3.88200800       0.01256300
H       -2.32277600       2.69064700      -2.69957800
H       -0.85545300       1.74324400      -2.84593200
H       -2.42881800       0.08929600      -1.21569800
H       -3.59908200       0.78643500      -2.31613500
H       -2.79715600       3.68939100      -0.27946400
H       -3.24896100       1.99030400      -0.26241600
H       -1.32578300       3.24572900       1.74717300
H       -3.05071700       2.92085000       1.98358700
H       -0.94154200       1.63463400       3.59578900
H       -2.68833600       1.31389100       3.67403100
H       -2.30773400      -1.04728900       3.01367500
H       -1.46449000      -0.60661800       4.51684300
H        0.30259300      -2.25875500       4.20455700
H       -0.71331700      -2.83102800       2.87814500
H        2.16405800      -1.82163200       2.71662400
H        1.68128800      -3.51595800       2.69881300
Ba       0.28100300       0.24747200       0.39210400
