63
Properties=species:S:1:pos:R:3 pbc="F F F"
C        2.07832300       1.74023700       1.68010100
C        1.14719500       2.85168000       1.24937400
O        0.01211600       2.28876000       0.59112700
C       -1.26164300       2.68753900       1.09735900
C       -1.66664800       1.84958300       2.29634100
N       -1.69351900       0.40343000       2.02480600
C       -3.03100000      -0.07564100       1.65962200
C       -3.55141900       0.47497000       0.35607500
O       -2.62225800       0.17292700      -0.67919600
C       -2.95492200       0.80253700      -1.90952700
C       -2.03052900       0.29992400      -2.98006200
O       -0.68593600       0.53608100      -2.57617200
C        0.23565300       0.48118000      -3.65811400
C        1.63014800       0.70913500      -3.12769000
N        2.02315900      -0.21443000      -2.05785400
C        3.29068200       0.22524300      -1.46086400
C        3.10719100       1.32131700      -0.44096600
O        2.31862400       0.80637100       0.63186700
C        2.10257700      -1.59218400      -2.55278000
C        2.28593100      -2.62196000      -1.46427400
O        1.23780700      -2.50296700      -0.50734400
C        1.46978000      -3.32042100       0.63369300
C        0.25220300      -3.29703100       1.50956000
O       -0.03551700      -1.94456000       1.83420400
C       -0.94022500      -1.80719700       2.92452600
C       -1.18384600      -0.34003300       3.18535900
H        3.02269000       2.16133600       2.03807000
H        1.62430700       1.16489500       2.48912800
H        1.63152100       3.54445500       0.55812500
H        0.84277500       3.41483900       2.13401200
H       -1.95505600       2.58848700       0.26402200
H       -1.23603400       3.74253300       1.38046700
H       -2.63714800       2.20271400       2.66679500
H       -0.94274300       2.03521100       3.09175800
H       -2.99475900      -1.16162300       1.56940400
H       -3.76108600       0.16348700       2.44563900
H       -4.51350400       0.00391200       0.13236300
H       -3.71714200       1.55550000       0.40024300
H       -2.86214600       1.88859900      -1.79621500
H       -3.98676000       0.56556600      -2.18706200
H       -2.17535900      -0.77098800      -3.15667100
H       -2.24386200       0.84031200      -3.90682800
H       -0.00063100       1.27191200      -4.37659200
H        0.13439500      -0.47827800      -4.17360900
H        2.32926500       0.65038900      -3.97402400
H        1.68325000       1.72518600      -2.73278800
H        3.98991400       0.57171900      -2.23300600
H        3.76146000      -0.61908400      -0.96066000
H        4.08258700       1.63385000      -0.05665600
H        2.62078500       2.19715800      -0.87975900
H        1.17485500      -1.82162400      -3.07792700
H        2.92076200      -1.71207300      -3.27712400
H        2.25451200      -3.61827100      -1.91570200
H        3.24705500      -2.52096100      -0.95244200
H        1.67072100      -4.35061400       0.32427400
H        2.34228600      -2.93933000       1.17494100
H       -0.61006700      -3.74552700       1.00500200
H        0.46143000      -3.86689000       2.41961100
H       -1.85981600      -2.35747100       2.70564100
H       -0.49420700      -2.24784400       3.82137700
H       -0.23546300       0.11465500       3.47720100
H       -1.86489200      -0.25875100       4.04446300
Sr      -0.01109400      -0.20517500      -0.15029300
