63
Properties=species:S:1:pos:R:3 pbc="F F F"
C       -2.05978500      -1.39321100      -2.93894800
C       -1.42847200      -2.69948000      -2.51486800
O       -0.25264200      -2.46677900      -1.76077000
C        0.19540900      -3.62458000      -1.08269200
C        1.50358100      -3.34910500      -0.37609200
N        1.44170500      -2.29415800       0.62568800
C        2.76992500      -1.93300100       1.09646600
C        2.80781300      -0.59454300       1.80605200
O        2.40038400       0.47394300       0.95929400
C        3.42728400       1.01003200       0.13413100
C        2.79460000       1.47264900      -1.14907000
O        1.69167700       2.29265100      -0.80088700
C        0.93616800       2.73550800      -1.91873700
C       -0.34982300       3.31953100      -1.38730200
N       -1.11721300       2.30888700      -0.65542300
C       -1.89973900       1.47688300      -1.57320600
C       -2.04565600       0.06579100      -1.03371700
O       -2.80120000      -0.76326400      -1.90346100
C       -1.96237100       2.89806600       0.38334800
C       -1.16220800       3.39298800       1.57480400
O       -0.26883600       2.40776900       2.09279100
C       -0.74516000       1.61757300       3.17827400
C       -1.37206300       0.32278500       2.72607100
O       -0.41669200      -0.37359300       1.94193100
C       -0.73942600      -1.74612500       1.72089000
C        0.51730100      -2.59103300       1.71826500
H       -2.77251100      -1.60319600      -3.73823800
H       -1.29710600      -0.71741000      -3.34063300
H       -1.18521700      -3.28890900      -3.40885900
H       -2.14950800      -3.27330700      -1.91911500
H        0.35992900      -4.43994500      -1.79866900
H       -0.57840300      -3.95907400      -0.38025000
H        1.84261200      -4.30475100       0.05854500
H        2.24418500      -3.05795300      -1.12451700
H        3.18776600      -2.68885700       1.78215600
H        3.43609100      -1.89087600       0.23138900
H        3.81935000      -0.40604800       2.17786800
H        2.13335100      -0.57899000       2.66186700
H        4.18426600       0.25562600      -0.09225900
H        3.90944500       1.84244800       0.65671900
H        2.44059100       0.61386100      -1.73201700
H        3.52053100       2.03093800      -1.74951400
H        0.74395400       1.88696700      -2.58551100
H        1.49822600       3.49018900      -2.47834200
H       -0.93035700       3.74995900      -2.21331000
H       -0.09762200       4.13971300      -0.71439700
H       -2.88721300       1.91864000      -1.76450800
H       -1.38122000       1.42946300      -2.53207900
H       -1.05315700      -0.35867300      -0.87249300
H       -2.57321900       0.06892400      -0.07809200
H       -2.55428500       3.74106700      -0.00355000
H       -2.67098900       2.13899900       0.71605000
H       -0.53862300       4.24530200       1.30172600
H       -1.84744600       3.72464400       2.35879500
H        0.12704100       1.39677700       3.79682800
H       -1.45979600       2.18745800       3.77732000
H       -2.28876900       0.49333100       2.15132400
H       -1.63144600      -0.26213000       3.61512200
H       -1.39041300      -2.09439000       2.52832500
H       -1.28558400      -1.84886400       0.77833400
H        1.01961700      -2.45666800       2.67959200
H        0.20705900      -3.64191300       1.68898600
Li       0.53030600       1.23665400       0.63446700
